@relation storm_trainingSet7.arff

@attribute SIZE numeric
@attribute LOC_ADDED numeric
@attribute AVG_LOC_ADDED numeric
@attribute MAX_LOC_ADDED numeric
@attribute LOC_REMOVED numeric
@attribute AVG_LOC_REMOVED numeric
@attribute MAX_LOC_REMOVED numeric
@attribute CHURN numeric
@attribute AVG_CHURN numeric
@attribute MAX_CHURN numeric
@attribute NUMBER_OF_REVISIONS numeric
@attribute NUMBER_OF_DEFECT_FIXES numeric
@attribute NUMBER_OF_AUTHORS numeric
@attribute IS_BUGGY {'YES','NO'}

@data
958,3504,100.11428571428571,799,829,23.685714285714287,122,2819,80.54285714285714,799,35,0,9,YES
89,108,21.6,82,12,2.4,6,96,19.2,82,5,0,3,YES
18,54,18.0,18,0,0.0,0,54,18.0,18,3,0,2,NO
30,90,30.0,30,0,0.0,0,90,30.0,30,3,0,2,NO
10,30,10.0,10,0,0.0,0,30,10.0,10,3,0,2,NO
152,456,152.0,152,0,0.0,0,456,152.0,152,3,0,2,NO
102,306,102.0,102,0,0.0,0,306,102.0,102,3,0,2,NO
136,408,136.0,136,0,0.0,0,408,136.0,136,3,0,2,NO
34,104,20.8,34,2,0.4,1,102,20.4,34,5,0,3,NO
34,104,20.8,34,2,0.4,1,102,20.4,34,5,0,3,NO
91,273,91.0,91,0,0.0,0,273,91.0,91,3,0,2,NO
29,87,29.0,29,0,0.0,0,87,29.0,29,3,0,2,NO
36,108,36.0,36,0,0.0,0,108,36.0,36,3,0,2,NO
419,1257,419.0,419,0,0.0,0,1257,419.0,419,3,0,2,NO
365,1095,365.0,365,0,0.0,0,1095,365.0,365,3,0,2,NO
13,39,13.0,13,0,0.0,0,39,13.0,13,3,0,2,NO
5,15,5.0,5,0,0.0,0,15,5.0,5,3,0,2,NO
74,222,74.0,74,0,0.0,0,222,74.0,74,3,0,2,NO
152,456,152.0,152,0,0.0,0,456,152.0,152,3,0,2,NO
58,174,58.0,58,0,0.0,0,174,58.0,58,3,0,2,NO
76,228,76.0,76,0,0.0,0,228,76.0,76,3,0,2,NO
32,96,32.0,32,0,0.0,0,96,32.0,32,3,0,2,NO
366,1098,366.0,366,0,0.0,0,1098,366.0,366,3,0,2,NO
42,126,42.0,42,0,0.0,0,126,42.0,42,3,0,2,NO
78,234,78.0,78,0,0.0,0,234,78.0,78,3,0,2,NO
327,984,328.0,328,0,0.0,0,984,328.0,328,3,0,2,NO
426,1281,427.0,427,0,0.0,0,1281,427.0,427,3,0,2,NO
1110,3333,1111.0,1111,0,0.0,0,3333,1111.0,1111,3,0,2,NO
597,1794,598.0,598,0,0.0,0,1794,598.0,598,3,0,2,NO
706,2121,707.0,707,0,0.0,0,2121,707.0,707,3,0,2,NO
385,1155,385.0,385,0,0.0,0,1155,385.0,385,3,0,2,NO
327,984,328.0,328,0,0.0,0,984,328.0,328,3,0,2,NO
424,1275,425.0,425,0,0.0,0,1275,425.0,425,3,0,2,NO
964,2892,964.0,964,0,0.0,0,2892,964.0,964,3,0,2,NO
2015,6045,2015.0,2015,0,0.0,0,6045,2015.0,2015,3,0,2,NO
424,1275,425.0,425,0,0.0,0,1275,425.0,425,3,0,2,NO
419,1260,420.0,420,0,0.0,0,1260,420.0,420,3,0,2,NO
318,954,318.0,318,0,0.0,0,954,318.0,318,3,0,2,NO
678,2037,679.0,679,0,0.0,0,2037,679.0,679,3,0,2,NO
807,2424,808.0,808,0,0.0,0,2424,808.0,808,3,0,2,NO
424,1275,425.0,425,0,0.0,0,1275,425.0,425,3,0,2,NO
662,1986,662.0,662,0,0.0,0,1986,662.0,662,3,0,2,NO
327,984,328.0,328,0,0.0,0,984,328.0,328,3,0,2,NO
462,1389,463.0,463,0,0.0,0,1389,463.0,463,3,0,2,NO
532,1596,532.0,532,0,0.0,0,1596,532.0,532,3,0,2,NO
319,960,320.0,320,0,0.0,0,960,320.0,320,3,0,2,NO
13491,40473,13491.0,13491,0,0.0,0,40473,13491.0,13491,3,0,2,NO
327,984,328.0,328,0,0.0,0,984,328.0,328,3,0,2,NO
224,675,225.0,225,0,0.0,0,675,225.0,225,3,0,2,NO
548,1647,549.0,549,0,0.0,0,1647,549.0,549,3,0,2,NO
416,1251,417.0,417,0,0.0,0,1251,417.0,417,3,0,2,NO
426,1281,427.0,427,0,0.0,0,1281,427.0,427,3,0,2,NO
755,2268,756.0,756,0,0.0,0,2268,756.0,756,3,0,2,NO
426,1281,427.0,427,0,0.0,0,1281,427.0,427,3,0,2,NO
659,1980,660.0,660,0,0.0,0,1980,660.0,660,3,0,2,NO
461,1386,462.0,462,0,0.0,0,1386,462.0,462,3,0,2,NO
339,1020,340.0,340,0,0.0,0,1020,340.0,340,3,0,2,NO
705,2118,706.0,706,0,0.0,0,2118,706.0,706,3,0,2,NO
917,2754,918.0,918,0,0.0,0,2754,918.0,918,3,0,2,NO
44,132,44.0,44,0,0.0,0,132,44.0,44,3,0,2,NO
894,2685,895.0,895,0,0.0,0,2685,895.0,895,3,0,2,NO
26,78,26.0,26,0,0.0,0,78,26.0,26,3,0,2,NO
44,132,44.0,44,0,0.0,0,132,44.0,44,3,0,2,NO
21,63,21.0,21,0,0.0,0,63,21.0,21,3,0,2,NO
15,45,15.0,15,0,0.0,0,45,15.0,15,3,0,2,NO
15,45,15.0,15,0,0.0,0,45,15.0,15,3,0,2,NO
15,45,15.0,15,0,0.0,0,45,15.0,15,3,0,2,NO
18,54,18.0,18,0,0.0,0,54,18.0,18,3,0,2,NO
13,39,13.0,13,0,0.0,0,39,13.0,13,3,0,2,NO
13,39,13.0,13,0,0.0,0,39,13.0,13,3,0,2,NO
21,63,21.0,21,0,0.0,0,63,21.0,21,3,0,2,NO
42,126,42.0,42,0,0.0,0,126,42.0,42,3,0,2,NO
36,166,23.714285714285715,36,58,8.285714285714286,25,192,27.428571428571427,36,7,0,3,NO
40,120,40.0,40,0,0.0,0,120,40.0,40,3,0,2,NO
55,110,55.0,55,0,0.0,0,110,55.0,55,2,0,2,NO
47,141,47.0,47,0,0.0,0,141,47.0,47,3,0,2,NO
138,459,45.9,139,45,4.5,14,420,42.0,139,10,0,5,NO
17,51,17.0,17,0,0.0,0,51,17.0,17,3,0,2,NO
21,63,21.0,21,0,0.0,0,63,21.0,21,3,0,2,NO
24,72,24.0,24,0,0.0,0,72,24.0,24,3,0,2,NO
6,18,6.0,6,0,0.0,0,18,6.0,6,3,0,2,NO
5,15,5.0,5,0,0.0,0,15,5.0,5,3,0,2,NO
43,129,43.0,43,0,0.0,0,129,43.0,43,3,0,2,NO
7,21,7.0,7,0,0.0,0,21,7.0,7,3,0,2,NO
5,10,5.0,5,0,0.0,0,10,5.0,5,2,0,2,NO
38,114,38.0,38,0,0.0,0,114,38.0,38,3,0,2,NO
28,84,28.0,28,0,0.0,0,84,28.0,28,3,0,2,NO
33,99,33.0,33,0,0.0,0,99,33.0,33,3,0,2,NO
21,63,21.0,21,0,0.0,0,63,21.0,21,3,0,2,NO
14,28,14.0,14,0,0.0,0,28,14.0,14,2,0,2,NO
14,42,6.0,11,3,0.42857142857142855,1,39,5.571428571428571,11,7,0,3,NO
11,35,4.375,10,3,0.375,1,32,4.0,10,8,0,3,NO
8,24,8.0,8,0,0.0,0,24,8.0,8,3,0,2,NO
8,24,8.0,8,0,0.0,0,24,8.0,8,3,0,2,NO
16,48,16.0,16,0,0.0,0,48,16.0,16,3,0,2,NO
418,1254,418.0,418,0,0.0,0,1254,418.0,418,3,0,2,NO
37,111,37.0,37,0,0.0,0,111,37.0,37,3,0,2,NO
22,66,22.0,22,0,0.0,0,66,22.0,22,3,0,2,NO
23,69,23.0,23,0,0.0,0,69,23.0,23,3,0,2,NO
28,84,28.0,28,0,0.0,0,84,28.0,28,3,0,2,NO
41,123,41.0,41,0,0.0,0,123,41.0,41,3,0,2,NO
93,279,93.0,93,0,0.0,0,279,93.0,93,3,0,2,NO
72,216,72.0,72,0,0.0,0,216,72.0,72,3,0,2,NO
40,120,40.0,40,0,0.0,0,120,40.0,40,3,0,2,NO
72,216,72.0,72,0,0.0,0,216,72.0,72,3,0,2,NO
35,105,35.0,35,0,0.0,0,105,35.0,35,3,0,2,NO
80,243,81.0,81,0,0.0,0,243,81.0,81,3,0,2,NO
30,90,30.0,30,0,0.0,0,90,30.0,30,3,0,2,NO
38,114,38.0,38,0,0.0,0,114,38.0,38,3,0,2,NO
91,273,91.0,91,0,0.0,0,273,91.0,91,3,0,2,NO
143,429,143.0,143,0,0.0,0,429,143.0,143,3,0,2,NO
107,321,107.0,107,0,0.0,0,321,107.0,107,3,0,2,NO
62,186,62.0,62,0,0.0,0,186,62.0,62,3,0,2,NO
62,186,62.0,62,0,0.0,0,186,62.0,62,3,0,2,NO
40,120,40.0,40,0,0.0,0,120,40.0,40,3,0,2,NO
40,120,40.0,40,0,0.0,0,120,40.0,40,3,0,2,NO
93,279,93.0,93,0,0.0,0,279,93.0,93,3,0,2,NO
52,156,52.0,52,0,0.0,0,156,52.0,52,3,0,2,NO
97,291,97.0,97,0,0.0,0,291,97.0,97,3,0,2,NO
72,216,72.0,72,0,0.0,0,216,72.0,72,3,0,2,NO
47,141,47.0,47,0,0.0,0,141,47.0,47,3,0,2,NO
6,18,6.0,6,0,0.0,0,18,6.0,6,3,0,2,NO
23,69,23.0,23,0,0.0,0,69,23.0,23,3,0,2,NO
8,24,8.0,8,0,0.0,0,24,8.0,8,3,0,2,NO
9,27,9.0,9,0,0.0,0,27,9.0,9,3,0,2,NO
42,126,42.0,42,0,0.0,0,126,42.0,42,3,0,2,NO
43,129,43.0,43,0,0.0,0,129,43.0,43,3,0,2,NO
34,102,34.0,34,0,0.0,0,102,34.0,34,3,0,2,NO
41,123,41.0,41,0,0.0,0,123,41.0,41,3,0,2,NO
44,132,44.0,44,0,0.0,0,132,44.0,44,3,0,2,NO
207,621,207.0,207,0,0.0,0,621,207.0,207,3,0,2,NO
15,45,15.0,15,0,0.0,0,45,15.0,15,3,0,2,NO
15,45,15.0,15,0,0.0,0,45,15.0,15,3,0,2,NO
15,45,15.0,15,0,0.0,0,45,15.0,15,3,0,2,NO
15,45,15.0,15,0,0.0,0,45,15.0,15,3,0,2,NO
6,18,6.0,6,0,0.0,0,18,6.0,6,3,0,2,NO
7,21,7.0,7,0,0.0,0,21,7.0,7,3,0,2,NO
88,264,88.0,88,0,0.0,0,264,88.0,88,3,0,2,NO
12,39,13.0,13,0,0.0,0,39,13.0,13,3,0,2,NO
17,51,17.0,17,0,0.0,0,51,17.0,17,3,0,2,NO
11,33,11.0,11,0,0.0,0,33,11.0,11,3,0,2,NO
14,42,14.0,14,0,0.0,0,42,14.0,14,3,0,2,NO
21,63,21.0,21,0,0.0,0,63,21.0,21,3,0,2,NO
15,45,15.0,15,0,0.0,0,45,15.0,15,3,0,2,NO
11,33,11.0,11,0,0.0,0,33,11.0,11,3,0,2,NO
24,72,24.0,24,0,0.0,0,72,24.0,24,3,0,2,NO
120,508,56.44444444444444,120,43,4.777777777777778,19,497,55.22222222222222,120,9,0,3,NO
24,72,24.0,24,0,0.0,0,72,24.0,24,3,0,2,NO
117,351,117.0,117,0,0.0,0,351,117.0,117,3,0,2,NO
12,36,12.0,12,0,0.0,0,36,12.0,12,3,0,2,NO
5,15,5.0,5,0,0.0,0,15,5.0,5,3,0,2,NO
8,24,8.0,8,0,0.0,0,24,8.0,8,3,0,2,NO
7,21,7.0,7,0,0.0,0,21,7.0,7,3,0,2,NO
11,33,11.0,11,0,0.0,0,33,11.0,11,3,0,2,NO
13,39,13.0,13,0,0.0,0,39,13.0,13,3,0,2,NO
181,543,181.0,181,0,0.0,0,543,181.0,181,3,0,2,NO
67,201,67.0,67,0,0.0,0,201,67.0,67,3,0,2,NO
5,15,5.0,5,0,0.0,0,15,5.0,5,3,0,2,NO
14,42,14.0,14,0,0.0,0,42,14.0,14,3,0,2,NO
15,45,15.0,15,0,0.0,0,45,15.0,15,3,0,2,NO
208,624,208.0,208,0,0.0,0,624,208.0,208,3,0,2,NO
228,967,74.38461538461539,223,80,6.153846153846154,34,907,69.76923076923077,223,13,0,4,NO
249,747,249.0,249,0,0.0,0,747,249.0,249,3,0,2,NO
89,267,89.0,89,0,0.0,0,267,89.0,89,3,0,2,NO
8,24,8.0,8,0,0.0,0,24,8.0,8,3,0,2,NO
35,105,35.0,35,0,0.0,0,105,35.0,35,3,0,2,NO
35,105,35.0,35,0,0.0,0,105,35.0,35,3,0,2,NO
55,165,55.0,55,0,0.0,0,165,55.0,55,3,0,2,NO
22,66,22.0,22,0,0.0,0,66,22.0,22,3,0,2,NO
31,93,31.0,31,0,0.0,0,93,31.0,31,3,0,2,NO
25,75,25.0,25,0,0.0,0,75,25.0,25,3,0,2,NO
50,150,50.0,50,0,0.0,0,150,50.0,50,3,0,2,NO
38,114,38.0,38,0,0.0,0,114,38.0,38,3,0,2,NO
40,120,40.0,40,0,0.0,0,120,40.0,40,3,0,2,NO
83,249,83.0,83,0,0.0,0,249,83.0,83,3,0,2,NO
25,75,25.0,25,0,0.0,0,75,25.0,25,3,0,2,NO
162,472,94.4,142,6,1.2,3,466,93.2,142,5,0,3,NO
25,75,25.0,25,0,0.0,0,75,25.0,25,3,0,2,NO
44,132,44.0,44,0,0.0,0,132,44.0,44,3,0,2,NO
7,21,7.0,7,0,0.0,0,21,7.0,7,3,0,2,NO
44,132,44.0,44,0,0.0,0,132,44.0,44,3,0,2,NO
164,492,164.0,164,0,0.0,0,492,164.0,164,3,0,2,NO
21,63,21.0,21,0,0.0,0,63,21.0,21,3,0,2,NO
40,120,40.0,40,0,0.0,0,120,40.0,40,3,0,2,NO
34,102,34.0,34,0,0.0,0,102,34.0,34,3,0,2,NO
43,129,43.0,43,0,0.0,0,129,43.0,43,3,0,2,NO
33,99,33.0,33,0,0.0,0,99,33.0,33,3,0,2,NO
34,102,34.0,34,0,0.0,0,102,34.0,34,3,0,2,NO
169,507,169.0,169,0,0.0,0,507,169.0,169,3,0,2,NO
35,105,35.0,35,0,0.0,0,105,35.0,35,3,0,2,NO
88,264,88.0,88,0,0.0,0,264,88.0,88,3,0,2,NO
46,138,46.0,46,0,0.0,0,138,46.0,46,3,0,2,NO
45,135,45.0,45,0,0.0,0,135,45.0,45,3,0,2,NO
43,129,43.0,43,0,0.0,0,129,43.0,43,3,0,2,NO
24,72,24.0,24,0,0.0,0,72,24.0,24,3,0,2,NO
14,42,14.0,14,0,0.0,0,42,14.0,14,3,0,2,NO
28,84,28.0,28,0,0.0,0,84,28.0,28,3,0,2,NO
68,204,68.0,68,0,0.0,0,204,68.0,68,3,0,2,NO
20,60,20.0,20,0,0.0,0,60,20.0,20,3,0,2,NO
44,132,44.0,44,0,0.0,0,132,44.0,44,3,0,2,NO
69,207,69.0,69,0,0.0,0,207,69.0,69,3,0,2,NO
17,51,17.0,17,0,0.0,0,51,17.0,17,3,0,2,NO
66,198,66.0,66,0,0.0,0,198,66.0,66,3,0,2,NO
37,111,37.0,37,0,0.0,0,111,37.0,37,3,0,2,NO
50,150,50.0,50,0,0.0,0,150,50.0,50,3,0,2,NO
45,135,45.0,45,0,0.0,0,135,45.0,45,3,0,2,NO
5,15,5.0,5,0,0.0,0,15,5.0,5,3,0,2,NO
12,36,12.0,12,0,0.0,0,36,12.0,12,3,0,2,NO
19,57,19.0,19,0,0.0,0,57,19.0,19,3,0,2,NO
16,48,16.0,16,0,0.0,0,48,16.0,16,3,0,2,NO
9,27,9.0,9,0,0.0,0,27,9.0,9,3,0,2,NO
27,81,27.0,27,0,0.0,0,81,27.0,27,3,0,2,NO
12,36,12.0,12,0,0.0,0,36,12.0,12,3,0,2,NO
12,36,12.0,12,0,0.0,0,36,12.0,12,3,0,2,NO
8,24,8.0,8,0,0.0,0,24,8.0,8,3,0,2,NO
36,108,36.0,36,0,0.0,0,108,36.0,36,3,0,2,NO
15,45,15.0,15,0,0.0,0,45,15.0,15,3,0,2,NO
36,108,36.0,36,0,0.0,0,108,36.0,36,3,0,2,NO
19,57,19.0,19,0,0.0,0,57,19.0,19,3,0,2,NO
5,15,5.0,5,0,0.0,0,15,5.0,5,3,0,2,NO
342,1026,342.0,342,0,0.0,0,1026,342.0,342,3,0,2,NO
16,48,16.0,16,0,0.0,0,48,16.0,16,3,0,2,NO
8,24,8.0,8,0,0.0,0,24,8.0,8,3,0,2,NO
11,33,11.0,11,0,0.0,0,33,11.0,11,3,0,2,NO
8,24,8.0,8,0,0.0,0,24,8.0,8,3,0,2,NO
8,24,8.0,8,0,0.0,0,24,8.0,8,3,0,2,NO
9,27,9.0,9,0,0.0,0,27,9.0,9,3,0,2,NO
33,99,33.0,33,0,0.0,0,99,33.0,33,3,0,2,NO
7,21,7.0,7,0,0.0,0,21,7.0,7,3,0,2,NO
8,24,8.0,8,0,0.0,0,24,8.0,8,3,0,2,NO
9,27,9.0,9,0,0.0,0,27,9.0,9,3,0,2,NO
14,42,14.0,14,0,0.0,0,42,14.0,14,3,0,2,NO
77,231,77.0,77,0,0.0,0,231,77.0,77,3,0,2,NO
44,132,44.0,44,0,0.0,0,132,44.0,44,3,0,2,NO
79,237,79.0,79,0,0.0,0,237,79.0,79,3,0,2,NO
200,600,200.0,200,0,0.0,0,600,200.0,200,3,0,2,NO
493,1479,493.0,493,0,0.0,0,1479,493.0,493,3,0,2,NO
39,117,39.0,39,0,0.0,0,117,39.0,39,3,0,2,NO
52,156,52.0,52,0,0.0,0,156,52.0,52,3,0,2,NO
142,426,142.0,142,0,0.0,0,426,142.0,142,3,0,2,NO
125,375,125.0,125,0,0.0,0,375,125.0,125,3,0,2,NO
132,396,132.0,132,0,0.0,0,396,132.0,132,3,0,2,NO
122,366,122.0,122,0,0.0,0,366,122.0,122,3,0,2,NO
83,249,83.0,83,0,0.0,0,249,83.0,83,3,0,2,NO
81,243,81.0,81,0,0.0,0,243,81.0,81,3,0,2,NO
154,462,154.0,154,0,0.0,0,462,154.0,154,3,0,2,NO
334,1002,334.0,334,0,0.0,0,1002,334.0,334,3,0,2,NO
20,60,20.0,20,0,0.0,0,60,20.0,20,3,0,2,NO
37,111,37.0,37,0,0.0,0,111,37.0,37,3,0,2,NO
27,81,27.0,27,0,0.0,0,81,27.0,27,3,0,2,NO
18,54,18.0,18,0,0.0,0,54,18.0,18,3,0,2,NO
7,21,7.0,7,0,0.0,0,21,7.0,7,3,0,2,NO
67,201,67.0,67,0,0.0,0,201,67.0,67,3,0,2,NO
165,475,95.0,143,2,0.4,1,473,94.6,143,5,0,3,NO
160,480,160.0,160,0,0.0,0,480,160.0,160,3,0,2,NO
42,126,42.0,42,0,0.0,0,126,42.0,42,3,0,2,NO
51,153,51.0,51,0,0.0,0,153,51.0,51,3,0,2,NO
139,417,139.0,139,0,0.0,0,417,139.0,139,3,0,2,NO
73,219,73.0,73,0,0.0,0,219,73.0,73,3,0,2,NO
26,78,26.0,26,0,0.0,0,78,26.0,26,3,0,2,NO
26,78,26.0,26,0,0.0,0,78,26.0,26,3,0,2,NO
21,63,21.0,21,0,0.0,0,63,21.0,21,3,0,2,NO
37,111,37.0,37,0,0.0,0,111,37.0,37,3,0,2,NO
47,141,47.0,47,0,0.0,0,141,47.0,47,3,0,2,NO
107,321,107.0,107,0,0.0,0,321,107.0,107,3,0,2,NO
30,90,30.0,30,0,0.0,0,90,30.0,30,3,0,2,NO
132,634,90.57142857142857,132,86,12.285714285714286,35,556,79.42857142857143,132,7,0,3,NO
41,123,41.0,41,0,0.0,0,123,41.0,41,3,0,2,NO
86,258,86.0,86,0,0.0,0,258,86.0,86,3,0,2,NO
144,432,144.0,144,0,0.0,0,432,144.0,144,3,0,2,NO
398,1197,149.625,386,4,0.5,2,1193,149.125,386,8,0,3,YES
169,507,169.0,169,0,0.0,0,507,169.0,169,3,0,2,NO
34,102,34.0,34,0,0.0,0,102,34.0,34,3,0,2,NO
358,1074,358.0,358,0,0.0,0,1074,358.0,358,3,0,2,NO
31,93,31.0,31,0,0.0,0,93,31.0,31,3,0,2,NO
13,39,13.0,13,0,0.0,0,39,13.0,13,3,0,2,NO
357,1071,357.0,357,0,0.0,0,1071,357.0,357,3,0,2,NO
23,69,23.0,23,0,0.0,0,69,23.0,23,3,0,2,NO
796,2388,796.0,796,0,0.0,0,2388,796.0,796,3,0,2,NO
95,285,95.0,95,0,0.0,0,285,95.0,95,3,0,2,NO
166,498,166.0,166,0,0.0,0,498,166.0,166,3,0,2,NO
15,45,15.0,15,0,0.0,0,45,15.0,15,3,0,2,NO
15,45,15.0,15,0,0.0,0,45,15.0,15,3,0,2,NO
9,27,9.0,9,0,0.0,0,27,9.0,9,3,0,2,NO
157,471,157.0,157,0,0.0,0,471,157.0,157,3,0,2,NO
14,42,14.0,14,0,0.0,0,42,14.0,14,3,0,2,NO
7,21,7.0,7,0,0.0,0,21,7.0,7,3,0,2,NO
17,51,17.0,17,0,0.0,0,51,17.0,17,3,0,2,NO
106,318,106.0,106,0,0.0,0,318,106.0,106,3,0,2,NO
70,210,70.0,70,0,0.0,0,210,70.0,70,3,0,2,NO
9,27,9.0,9,0,0.0,0,27,9.0,9,3,0,2,NO
8,24,8.0,8,0,0.0,0,24,8.0,8,3,0,2,NO
6,18,6.0,6,0,0.0,0,18,6.0,6,3,0,2,NO
6,18,6.0,6,0,0.0,0,18,6.0,6,3,0,2,NO
6,18,6.0,6,0,0.0,0,18,6.0,6,3,0,2,NO
16,48,16.0,16,0,0.0,0,48,16.0,16,3,0,2,NO
15,45,15.0,15,0,0.0,0,45,15.0,15,3,0,2,NO
12,36,12.0,12,0,0.0,0,36,12.0,12,3,0,2,NO
5,15,5.0,5,0,0.0,0,15,5.0,5,3,0,2,NO
8,24,8.0,8,0,0.0,0,24,8.0,8,3,0,2,NO
7,21,7.0,7,0,0.0,0,21,7.0,7,3,0,2,NO
14,42,14.0,14,0,0.0,0,42,14.0,14,3,0,2,NO
14,42,14.0,14,0,0.0,0,42,14.0,14,3,0,2,NO
9,27,9.0,9,0,0.0,0,27,9.0,9,3,0,2,NO
9,27,9.0,9,0,0.0,0,27,9.0,9,3,0,2,NO
9,27,9.0,9,0,0.0,0,27,9.0,9,3,0,2,NO
19,57,19.0,19,0,0.0,0,57,19.0,19,3,0,2,NO
48,144,48.0,48,0,0.0,0,144,48.0,48,3,0,2,NO
24,72,24.0,24,0,0.0,0,72,24.0,24,3,0,2,NO
22,66,22.0,22,0,0.0,0,66,22.0,22,3,0,2,NO
21,63,21.0,21,0,0.0,0,63,21.0,21,3,0,2,NO
14,42,14.0,14,0,0.0,0,42,14.0,14,3,0,2,NO
108,324,108.0,108,0,0.0,0,324,108.0,108,3,0,2,NO
21,63,21.0,21,0,0.0,0,63,21.0,21,3,0,2,NO
31,93,31.0,31,0,0.0,0,93,31.0,31,3,0,2,NO
27,81,27.0,27,0,0.0,0,81,27.0,27,3,0,2,NO
25,75,25.0,25,0,0.0,0,75,25.0,25,3,0,2,NO
29,87,29.0,29,0,0.0,0,87,29.0,29,3,0,2,NO
25,75,25.0,25,0,0.0,0,75,25.0,25,3,0,2,NO
96,288,96.0,96,0,0.0,0,288,96.0,96,3,0,2,NO
36,108,36.0,36,0,0.0,0,108,36.0,36,3,0,2,NO
39,117,39.0,39,0,0.0,0,117,39.0,39,3,0,2,NO
44,132,44.0,44,0,0.0,0,132,44.0,44,3,0,2,NO
32,96,32.0,32,0,0.0,0,96,32.0,32,3,0,2,NO
36,108,36.0,36,0,0.0,0,108,36.0,36,3,0,2,NO
12,36,12.0,12,0,0.0,0,36,12.0,12,3,0,2,NO
31,93,31.0,31,0,0.0,0,93,31.0,31,3,0,2,NO
79,237,79.0,79,0,0.0,0,237,79.0,79,3,0,2,NO
78,234,78.0,78,0,0.0,0,234,78.0,78,3,0,2,NO
34,102,34.0,34,0,0.0,0,102,34.0,34,3,0,2,NO
12,36,12.0,12,0,0.0,0,36,12.0,12,3,0,2,NO
142,426,142.0,142,0,0.0,0,426,142.0,142,3,0,2,NO
36,108,36.0,36,0,0.0,0,108,36.0,36,3,0,2,NO
39,117,39.0,39,0,0.0,0,117,39.0,39,3,0,2,NO
10,30,10.0,10,0,0.0,0,30,10.0,10,3,0,2,NO
78,234,78.0,78,0,0.0,0,234,78.0,78,3,0,2,NO
23,69,23.0,23,0,0.0,0,69,23.0,23,3,0,2,NO
28,84,28.0,28,0,0.0,0,84,28.0,28,3,0,2,NO
44,132,44.0,44,0,0.0,0,132,44.0,44,3,0,2,NO
36,108,36.0,36,0,0.0,0,108,36.0,36,3,0,2,NO
21,63,21.0,21,0,0.0,0,63,21.0,21,3,0,2,NO
47,141,47.0,47,0,0.0,0,141,47.0,47,3,0,2,NO
14,42,14.0,14,0,0.0,0,42,14.0,14,3,0,2,NO
35,105,35.0,35,0,0.0,0,105,35.0,35,3,0,2,NO
12,36,12.0,12,0,0.0,0,36,12.0,12,3,0,2,NO
16,48,16.0,16,0,0.0,0,48,16.0,16,3,0,2,NO
22,66,22.0,22,0,0.0,0,66,22.0,22,3,0,2,NO
201,603,201.0,201,0,0.0,0,603,201.0,201,3,0,2,NO
23,69,23.0,23,0,0.0,0,69,23.0,23,3,0,2,NO
10,30,10.0,10,0,0.0,0,30,10.0,10,3,0,2,NO
67,201,67.0,67,0,0.0,0,201,67.0,67,3,0,2,NO
45,135,45.0,45,0,0.0,0,135,45.0,45,3,0,2,NO
63,189,63.0,63,0,0.0,0,189,63.0,63,3,0,2,NO
42,126,42.0,42,0,0.0,0,126,42.0,42,3,0,2,NO
76,228,76.0,76,0,0.0,0,228,76.0,76,3,0,2,NO
90,270,90.0,90,0,0.0,0,270,90.0,90,3,0,2,NO
56,168,56.0,56,0,0.0,0,168,56.0,56,3,0,2,NO
89,267,89.0,89,0,0.0,0,267,89.0,89,3,0,2,NO
59,177,59.0,59,0,0.0,0,177,59.0,59,3,0,2,NO
75,225,75.0,75,0,0.0,0,225,75.0,75,3,0,2,NO
7,21,7.0,7,0,0.0,0,21,7.0,7,3,0,2,NO
16,48,16.0,16,0,0.0,0,48,16.0,16,3,0,2,NO
14,42,14.0,14,0,0.0,0,42,14.0,14,3,0,2,NO
45,135,45.0,45,0,0.0,0,135,45.0,45,3,0,2,NO
60,180,60.0,60,0,0.0,0,180,60.0,60,3,0,2,NO
8,24,8.0,8,0,0.0,0,24,8.0,8,3,0,2,NO
77,231,77.0,77,0,0.0,0,231,77.0,77,3,0,2,NO
184,552,184.0,184,0,0.0,0,552,184.0,184,3,0,2,NO
154,462,154.0,154,0,0.0,0,462,154.0,154,3,0,2,NO
181,543,181.0,181,0,0.0,0,543,181.0,181,3,0,2,NO
32,96,32.0,32,0,0.0,0,96,32.0,32,3,0,2,NO
21,63,21.0,21,0,0.0,0,63,21.0,21,3,0,2,NO
160,480,160.0,160,0,0.0,0,480,160.0,160,3,0,2,NO
77,231,77.0,77,0,0.0,0,231,77.0,77,3,0,2,NO
121,363,121.0,121,0,0.0,0,363,121.0,121,3,0,2,NO
8,24,8.0,8,0,0.0,0,24,8.0,8,3,0,2,NO
8,24,8.0,8,0,0.0,0,24,8.0,8,3,0,2,NO
19,57,19.0,19,0,0.0,0,57,19.0,19,3,0,2,NO
9,27,9.0,9,0,0.0,0,27,9.0,9,3,0,2,NO
27,81,27.0,27,0,0.0,0,81,27.0,27,3,0,2,NO
35,105,35.0,35,0,0.0,0,105,35.0,35,3,0,2,NO
33,99,33.0,33,0,0.0,0,99,33.0,33,3,0,2,NO
58,178,35.6,54,8,1.6,4,170,34.0,54,5,0,3,NO
11,33,11.0,11,0,0.0,0,33,11.0,11,3,0,2,NO
14,42,14.0,14,0,0.0,0,42,14.0,14,3,0,2,NO
24,72,24.0,24,0,0.0,0,72,24.0,24,3,0,2,NO
9,27,9.0,9,0,0.0,0,27,9.0,9,3,0,2,NO
22,66,22.0,22,0,0.0,0,66,22.0,22,3,0,2,NO
9,27,9.0,9,0,0.0,0,27,9.0,9,3,0,2,NO
13,39,13.0,13,0,0.0,0,39,13.0,13,3,0,2,NO
8,24,8.0,8,0,0.0,0,24,8.0,8,3,0,2,NO
16,48,16.0,16,0,0.0,0,48,16.0,16,3,0,2,NO
27,81,27.0,27,0,0.0,0,81,27.0,27,3,0,2,NO
6,18,6.0,6,0,0.0,0,18,6.0,6,3,0,2,NO
63,189,63.0,63,0,0.0,0,189,63.0,63,3,0,2,NO
62,186,62.0,62,0,0.0,0,186,62.0,62,3,0,2,NO
9,27,9.0,9,0,0.0,0,27,9.0,9,3,0,2,NO
66,198,66.0,66,0,0.0,0,198,66.0,66,3,0,2,NO
75,225,75.0,75,0,0.0,0,225,75.0,75,3,0,2,NO
9,27,9.0,9,0,0.0,0,27,9.0,9,3,0,2,NO
68,204,68.0,68,0,0.0,0,204,68.0,68,3,0,2,NO
50,150,50.0,50,0,0.0,0,150,50.0,50,3,0,2,NO
103,309,103.0,103,0,0.0,0,309,103.0,103,3,0,2,NO
9,27,9.0,9,0,0.0,0,27,9.0,9,3,0,2,NO
59,177,59.0,59,0,0.0,0,177,59.0,59,3,0,2,NO
92,276,92.0,92,0,0.0,0,276,92.0,92,3,0,2,NO
7,21,7.0,7,0,0.0,0,21,7.0,7,3,0,2,NO
10,30,10.0,10,0,0.0,0,30,10.0,10,3,0,2,NO
30,90,30.0,30,0,0.0,0,90,30.0,30,3,0,2,NO
168,504,168.0,168,0,0.0,0,504,168.0,168,3,0,2,NO
79,237,79.0,79,0,0.0,0,237,79.0,79,3,0,2,NO
80,242,48.4,68,14,2.8,7,228,45.6,68,5,0,3,NO
6,18,6.0,6,0,0.0,0,18,6.0,6,3,0,2,NO
137,414,69.0,137,3,0.5,1,411,68.5,137,6,0,2,NO
30,90,30.0,30,0,0.0,0,90,30.0,30,3,0,2,NO
134,405,67.5,134,3,0.5,1,402,67.0,134,6,0,2,NO
149,447,149.0,149,0,0.0,0,447,149.0,149,3,0,2,NO
19,57,19.0,19,0,0.0,0,57,19.0,19,3,0,2,NO
15,45,15.0,15,0,0.0,0,45,15.0,15,3,0,2,NO
13,39,13.0,13,0,0.0,0,39,13.0,13,3,0,2,NO
20,60,20.0,20,0,0.0,0,60,20.0,20,3,0,2,NO
16,48,16.0,16,0,0.0,0,48,16.0,16,3,0,2,NO
15,45,15.0,15,0,0.0,0,45,15.0,15,3,0,2,NO
268,804,268.0,268,0,0.0,0,804,268.0,268,3,0,2,NO
49,147,49.0,49,0,0.0,0,147,49.0,49,3,0,2,NO
408,1224,408.0,408,0,0.0,0,1224,408.0,408,3,0,2,NO
705,2115,705.0,705,0,0.0,0,2115,705.0,705,3,0,2,NO
130,393,65.5,119,3,0.5,1,390,65.0,119,6,0,2,NO
118,354,118.0,118,0,0.0,0,354,118.0,118,3,0,2,NO
75,225,75.0,75,0,0.0,0,225,75.0,75,3,0,2,NO
27,81,27.0,27,0,0.0,0,81,27.0,27,3,0,2,NO
55,165,55.0,55,0,0.0,0,165,55.0,55,3,0,2,NO
311,933,311.0,311,0,0.0,0,933,311.0,311,3,0,2,NO
44,132,44.0,44,0,0.0,0,132,44.0,44,3,0,2,NO
11,33,11.0,11,0,0.0,0,33,11.0,11,3,0,2,NO
33,99,33.0,33,0,0.0,0,99,33.0,33,3,0,2,NO
18,54,18.0,18,0,0.0,0,54,18.0,18,3,0,2,NO
115,345,115.0,115,0,0.0,0,345,115.0,115,3,0,2,NO
201,794,34.52173913043478,199,177,7.695652173913044,31,659,28.652173913043477,199,23,0,6,NO
50,168,18.666666666666668,53,18,2.0,11,172,19.11111111111111,53,9,0,2,NO
51,249,27.666666666666668,72,96,10.666666666666666,60,257,28.555555555555557,51,9,0,2,NO
153,462,115.5,153,3,0.75,3,459,114.75,153,4,0,2,NO
68,215,30.714285714285715,75,11,1.5714285714285714,6,218,31.142857142857142,75,7,0,2,NO
22,159,19.875,94,93,11.625,44,218,27.25,94,8,0,2,NO
120,371,41.22222222222222,114,11,1.2222222222222223,4,360,40.0,114,9,0,5,NO
111,419,38.09090909090909,111,86,7.818181818181818,51,343,31.181818181818183,111,11,0,2,NO
27,92,15.333333333333334,33,11,1.8333333333333333,7,93,15.5,33,6,0,2,NO
59,201,25.125,59,24,3.0,10,177,22.125,59,8,0,2,NO
28,95,15.833333333333334,35,11,1.8333333333333333,8,98,16.333333333333332,35,6,0,2,NO
100,114,38.0,84,14,4.666666666666667,12,116,38.666666666666664,84,3,0,1,NO
122,30,7.5,14,57,14.25,35,39,9.75,26,4,0,1,NO
146,200,50.0,177,54,13.5,42,218,54.5,177,4,0,1,NO
76,0,0.0,0,1,1.0,1,1,1.0,1,1,0,1,NO
52,54,27.0,49,2,1.0,2,52,26.0,49,2,0,1,NO
88,0,0.0,0,0,0.0,0,0,0.0,0,0,0,0,NO
40,0,0.0,0,0,0.0,0,0,0.0,0,0,0,0,NO
32,0,0.0,0,0,0.0,0,0,0.0,0,0,0,0,NO
40,40,20.0,26,0,0.0,0,40,20.0,26,2,0,1,NO
51,2,2.0,2,2,2.0,2,0,0.0,0,1,0,1,NO
81,13,13.0,13,5,5.0,5,8,8.0,8,1,0,1,NO
35,1,1.0,1,1,1.0,1,0,0.0,0,1,0,1,NO
46,1,1.0,1,1,1.0,1,0,0.0,0,1,0,1,NO
46,2,2.0,2,2,2.0,2,0,0.0,0,1,0,1,NO
27,30,15.0,29,3,1.5,3,31,15.5,29,2,0,1,NO
12,12,12.0,12,0,0.0,0,12,12.0,12,1,0,1,NO
280,372,124.0,209,92,30.666666666666668,87,280,93.33333333333333,147,3,0,1,NO
29,30,15.0,30,1,0.5,1,31,15.5,30,2,0,1,NO
14,14,14.0,14,0,0.0,0,14,14.0,14,1,0,1,NO
73,73,73.0,73,0,0.0,0,73,73.0,73,1,0,1,NO
54,54,27.0,49,0,0.0,0,54,27.0,49,2,0,1,NO
83,83,83.0,83,0,0.0,0,83,83.0,83,1,0,1,NO
38,38,38.0,38,0,0.0,0,38,38.0,38,1,0,1,NO
32,32,32.0,32,0,0.0,0,32,32.0,32,1,0,1,NO
40,40,20.0,26,0,0.0,0,40,20.0,26,2,0,1,NO
50,50,50.0,50,0,0.0,0,50,50.0,50,1,0,1,NO
81,81,81.0,81,0,0.0,0,81,81.0,81,1,0,1,NO
35,35,35.0,35,0,0.0,0,35,35.0,35,1,0,1,NO
46,46,46.0,46,0,0.0,0,46,46.0,46,1,0,1,NO
46,46,46.0,46,0,0.0,0,46,46.0,46,1,0,1,NO
183,183,183.0,183,0,0.0,0,183,183.0,183,1,0,1,NO
192,192,192.0,192,0,0.0,0,192,192.0,192,1,0,1,NO
80,80,80.0,80,0,0.0,0,80,80.0,80,1,0,1,NO
71,71,71.0,71,0,0.0,0,71,71.0,71,1,0,1,NO
69,69,69.0,69,0,0.0,0,69,69.0,69,1,0,1,NO
78,630,45.0,78,6,0.42857142857142855,2,626,44.714285714285715,78,14,0,7,YES
87,701,53.92307692307692,87,5,0.38461538461538464,2,698,53.69230769230769,87,13,0,7,YES
68,544,60.44444444444444,68,0,0.0,0,544,60.44444444444444,68,9,0,6,YES
58,479,34.214285714285715,58,31,2.2142857142857144,10,454,32.42857142857143,58,14,0,7,YES
196,1573,121.0,196,5,0.38461538461538464,2,1570,120.76923076923077,196,13,0,7,YES
78,682,68.2,78,4,0.4,4,678,67.8,78,10,0,7,YES
64,512,56.888888888888886,64,0,0.0,0,512,56.888888888888886,64,9,0,6,YES
173,1384,153.77777777777777,173,0,0.0,0,1384,153.77777777777777,173,9,0,6,YES
246,1968,218.66666666666666,246,0,0.0,0,1968,218.66666666666666,246,9,0,6,YES
107,861,66.23076923076923,107,5,0.38461538461538464,2,858,66.0,107,13,0,7,YES
110,880,97.77777777777777,110,0,0.0,0,880,97.77777777777777,110,9,0,6,YES
58,464,51.55555555555556,58,0,0.0,0,464,51.55555555555556,58,9,0,6,YES
37,296,32.888888888888886,37,0,0.0,0,296,32.888888888888886,37,9,0,6,YES
142,1136,126.22222222222223,142,0,0.0,0,1136,126.22222222222223,142,9,0,6,YES
114,912,101.33333333333333,114,0,0.0,0,912,101.33333333333333,114,9,0,6,YES
59,472,52.44444444444444,59,0,0.0,0,472,52.44444444444444,59,9,0,6,YES
64,512,56.888888888888886,64,0,0.0,0,512,56.888888888888886,64,9,0,6,YES
164,1412,108.61538461538461,164,268,20.615384615384617,99,1144,88.0,164,13,0,7,YES
70,560,62.22222222222222,70,0,0.0,0,560,62.22222222222222,70,9,0,6,YES
32,256,28.444444444444443,32,0,0.0,0,256,28.444444444444443,32,9,0,6,YES
148,1184,131.55555555555554,148,0,0.0,0,1184,131.55555555555554,148,9,0,6,YES
156,1248,138.66666666666666,156,0,0.0,0,1248,138.66666666666666,156,9,0,6,YES
119,952,105.77777777777777,119,0,0.0,0,952,105.77777777777777,119,9,0,6,YES
118,944,104.88888888888889,118,0,0.0,0,944,104.88888888888889,118,9,0,6,YES
156,1248,138.66666666666666,156,0,0.0,0,1248,138.66666666666666,156,9,0,6,YES
85,685,52.69230769230769,85,5,0.38461538461538464,2,682,52.46153846153846,85,13,0,7,YES
39,320,32.0,39,0,0.0,0,320,32.0,39,10,0,7,YES
33,264,29.333333333333332,33,0,0.0,0,264,29.333333333333332,33,9,0,6,YES
146,1168,129.77777777777777,146,0,0.0,0,1168,129.77777777777777,146,9,0,6,YES
113,904,100.44444444444444,113,0,0.0,0,904,100.44444444444444,113,9,0,6,YES
147,1176,130.66666666666666,147,0,0.0,0,1176,130.66666666666666,147,9,0,6,YES
40,320,35.55555555555556,40,0,0.0,0,320,35.55555555555556,40,9,0,6,YES
125,1000,111.11111111111111,125,0,0.0,0,1000,111.11111111111111,125,9,0,6,YES
252,2016,224.0,252,0,0.0,0,2016,224.0,252,9,0,6,YES
368,2944,327.1111111111111,368,0,0.0,0,2944,327.1111111111111,368,9,0,6,YES
106,848,94.22222222222223,106,0,0.0,0,848,94.22222222222223,106,9,0,6,YES
181,1448,160.88888888888889,181,0,0.0,0,1448,160.88888888888889,181,9,0,6,YES
81,652,54.333333333333336,81,4,0.3333333333333333,2,648,54.0,81,12,0,8,YES
25,206,18.727272727272727,25,6,0.5454545454545454,4,200,18.181818181818183,25,11,0,7,YES
147,1187,84.78571428571429,147,21,1.5,7,1166,83.28571428571429,147,14,0,8,YES
94,752,83.55555555555556,94,0,0.0,0,752,83.55555555555556,94,9,0,6,YES
29,232,25.77777777777778,29,0,0.0,0,232,25.77777777777778,29,9,0,6,YES
52,406,36.90909090909091,52,0,0.0,0,406,36.90909090909091,52,11,0,7,YES
43,348,38.666666666666664,43,4,0.4444444444444444,4,344,38.22222222222222,43,9,0,6,YES
195,1551,141.0,195,16,1.4545454545454546,8,1535,139.54545454545453,195,11,0,7,YES
243,1914,159.5,243,10,0.8333333333333334,4,1904,158.66666666666666,243,12,0,7,YES
28,224,24.88888888888889,28,0,0.0,0,224,24.88888888888889,28,9,0,6,YES
37,291,26.454545454545453,37,0,0.0,0,291,26.454545454545453,37,11,0,7,YES
64,519,51.9,64,2,0.2,2,517,51.7,64,10,0,7,YES
28,214,19.454545454545453,28,0,0.0,0,214,19.454545454545453,28,11,0,7,YES
265,2122,141.46666666666667,265,122,8.133333333333333,59,2000,133.33333333333334,265,15,0,7,YES
36,288,32.0,36,0,0.0,0,288,32.0,36,9,0,6,YES
51,393,35.72727272727273,51,0,0.0,0,393,35.72727272727273,51,11,0,7,YES
38,304,33.77777777777778,38,0,0.0,0,304,33.77777777777778,38,9,0,6,YES
52,416,46.22222222222222,52,0,0.0,0,416,46.22222222222222,52,9,0,6,YES
37,296,32.888888888888886,37,0,0.0,0,296,32.888888888888886,37,9,0,6,YES
46,370,33.63636363636363,46,2,0.18181818181818182,1,368,33.45454545454545,46,11,0,7,YES
113,901,81.9090909090909,113,2,0.18181818181818182,1,899,81.72727272727273,113,11,0,7,YES
36,294,26.727272727272727,36,6,0.5454545454545454,4,288,26.181818181818183,36,11,0,7,YES
116,936,72.0,116,8,0.6153846153846154,3,928,71.38461538461539,116,13,0,8,YES
89,712,79.11111111111111,89,0,0.0,0,712,79.11111111111111,89,9,0,6,YES
50,404,44.888888888888886,50,4,0.4444444444444444,4,400,44.44444444444444,50,9,0,6,YES
31,248,27.555555555555557,31,0,0.0,0,248,27.555555555555557,31,9,0,6,YES
98,797,72.45454545454545,99,8,0.7272727272727273,4,793,72.0909090909091,99,11,0,7,YES
26,208,23.11111111111111,26,0,0.0,0,208,23.11111111111111,26,9,0,6,YES
25,200,22.22222222222222,25,0,0.0,0,200,22.22222222222222,25,9,0,6,YES
40,320,35.55555555555556,40,0,0.0,0,320,35.55555555555556,40,9,0,6,YES
59,472,52.44444444444444,59,0,0.0,0,472,52.44444444444444,59,9,0,6,YES
36,288,32.0,36,0,0.0,0,288,32.0,36,9,0,6,YES
58,466,42.36363636363637,58,2,0.18181818181818182,1,464,42.18181818181818,58,11,0,7,YES
37,296,32.888888888888886,37,0,0.0,0,296,32.888888888888886,37,9,0,6,YES
268,2155,195.9090909090909,269,6,0.5454545454545454,4,2153,195.72727272727272,269,11,0,7,YES
70,570,51.81818181818182,70,50,4.545454545454546,25,520,47.27272727272727,70,11,0,7,YES
72,216,72.0,72,0,0.0,0,216,72.0,72,3,0,3,NO
993,608,20.266666666666666,356,101,3.3666666666666667,13,611,20.366666666666667,344,30,3,12,YES
155,307,34.111111111111114,139,19,2.111111111111111,19,288,32.0,120,9,1,5,YES
35,19,9.5,17,1,0.5,1,18,9.0,17,2,0,2,NO
47,19,9.5,17,0,0.0,0,19,9.5,17,2,0,2,NO
27,17,17.0,17,0,0.0,0,17,17.0,17,1,0,1,NO
301,883,33.96153846153846,154,195,7.5,28,704,27.076923076923077,132,26,0,9,YES
119,17,17.0,17,0,0.0,0,17,17.0,17,1,0,1,NO
153,17,17.0,17,0,0.0,0,17,17.0,17,1,0,1,NO
51,17,17.0,17,0,0.0,0,17,17.0,17,1,0,1,NO
51,17,17.0,17,0,0.0,0,17,17.0,17,1,0,1,NO
108,17,17.0,17,0,0.0,0,17,17.0,17,1,0,1,NO
46,17,17.0,17,0,0.0,0,17,17.0,17,1,0,1,NO
53,17,17.0,17,0,0.0,0,17,17.0,17,1,0,1,NO
436,17,17.0,17,0,0.0,0,17,17.0,17,1,0,1,NO
382,17,17.0,17,0,0.0,0,17,17.0,17,1,0,1,NO
30,17,17.0,17,0,0.0,0,17,17.0,17,1,0,1,NO
22,17,17.0,17,0,0.0,0,17,17.0,17,1,0,1,NO
91,86,21.5,54,52,13.0,37,34,8.5,17,4,0,4,NO
169,115,28.75,92,14,3.5,8,101,25.25,84,4,0,4,YES
75,17,17.0,17,0,0.0,0,17,17.0,17,1,0,1,NO
93,17,17.0,17,0,0.0,0,17,17.0,17,1,0,1,NO
49,17,17.0,17,0,0.0,0,17,17.0,17,1,0,1,NO
383,17,17.0,17,0,0.0,0,17,17.0,17,1,0,1,NO
59,17,17.0,17,0,0.0,0,17,17.0,17,1,0,1,NO
95,52,13.0,32,6,1.5,3,46,11.5,29,4,0,4,NO
344,86,28.666666666666668,40,69,23.0,23,17,5.666666666666667,17,3,0,3,NO
443,107,35.666666666666664,47,90,30.0,30,17,5.666666666666667,17,3,0,3,NO
1127,290,96.66666666666667,108,273,91.0,91,17,5.666666666666667,17,3,0,3,NO
614,146,48.666666666666664,60,129,43.0,43,17,5.666666666666667,17,3,0,3,NO
723,167,55.666666666666664,67,150,50.0,50,17,5.666666666666667,17,3,0,3,NO
402,116,38.666666666666664,50,99,33.0,33,17,5.666666666666667,17,3,0,3,NO
344,86,28.666666666666668,40,69,23.0,23,17,5.666666666666667,17,3,0,3,NO
441,107,35.666666666666664,47,90,30.0,30,17,5.666666666666667,17,3,0,3,NO
981,391,97.75,107,276,69.0,90,115,28.75,98,4,0,4,NO
2032,926,231.5,333,595,148.75,192,331,82.75,314,4,0,4,NO
625,851,121.57142857142857,186,98,14.0,30,753,107.57142857142857,184,7,0,5,YES
436,107,35.666666666666664,47,90,30.0,30,17,5.666666666666667,17,3,0,3,NO
335,101,33.666666666666664,45,84,28.0,28,17,5.666666666666667,17,3,0,3,NO
695,176,58.666666666666664,70,159,53.0,53,17,5.666666666666667,17,3,0,3,NO
824,188,62.666666666666664,74,171,57.0,57,17,5.666666666666667,17,3,0,3,NO
441,107,35.666666666666664,47,90,30.0,30,17,5.666666666666667,17,3,0,3,NO
679,185,61.666666666666664,73,168,56.0,56,17,5.666666666666667,17,3,0,3,NO
344,86,28.666666666666668,40,69,23.0,23,17,5.666666666666667,17,3,0,3,NO
479,116,38.666666666666664,50,99,33.0,33,17,5.666666666666667,17,3,0,3,NO
549,152,50.666666666666664,62,135,45.0,45,17,5.666666666666667,17,3,0,3,NO
336,83,27.666666666666668,39,66,22.0,22,17,5.666666666666667,17,3,0,3,NO
13508,6450,1612.5,2881,3665,916.25,1184,2785,696.25,2768,4,0,4,YES
344,86,28.666666666666668,40,69,23.0,23,17,5.666666666666667,17,3,0,3,NO
241,65,21.666666666666668,33,48,16.0,16,17,5.666666666666667,17,3,0,3,NO
565,131,43.666666666666664,55,114,38.0,38,17,5.666666666666667,17,3,0,3,NO
433,101,33.666666666666664,45,84,28.0,28,17,5.666666666666667,17,3,0,3,NO
443,107,35.666666666666664,47,90,30.0,30,17,5.666666666666667,17,3,0,3,NO
772,200,66.66666666666667,78,183,61.0,61,17,5.666666666666667,17,3,0,3,NO
443,107,35.666666666666664,47,90,30.0,30,17,5.666666666666667,17,3,0,3,NO
676,164,54.666666666666664,66,147,49.0,49,17,5.666666666666667,17,3,0,3,NO
478,116,38.666666666666664,50,99,33.0,33,17,5.666666666666667,17,3,0,3,NO
356,183,45.75,97,70,17.5,23,113,28.25,96,4,0,4,NO
722,170,56.666666666666664,68,153,51.0,51,17,5.666666666666667,17,3,0,3,YES
934,412,103.0,191,205,51.25,68,207,51.75,190,4,0,4,NO
61,23,7.666666666666667,19,6,2.0,2,17,5.666666666666667,17,3,0,3,NO
911,403,100.75,191,196,49.0,65,207,51.75,190,4,0,4,YES
43,17,17.0,17,0,0.0,0,17,17.0,17,1,0,1,NO
61,17,17.0,17,0,0.0,0,17,17.0,17,1,0,1,NO
38,17,17.0,17,0,0.0,0,17,17.0,17,1,0,1,NO
32,17,17.0,17,0,0.0,0,17,17.0,17,1,0,1,NO
32,17,17.0,17,0,0.0,0,17,17.0,17,1,0,1,NO
32,17,17.0,17,0,0.0,0,17,17.0,17,1,0,1,NO
35,17,17.0,17,0,0.0,0,17,17.0,17,1,0,1,NO
30,17,17.0,17,0,0.0,0,17,17.0,17,1,0,1,NO
30,17,17.0,17,0,0.0,0,17,17.0,17,1,0,1,NO
49,101,12.625,19,18,2.25,6,95,11.875,17,8,1,6,YES
59,17,17.0,17,0,0.0,0,17,17.0,17,1,0,1,NO
53,17,17.0,17,0,0.0,0,17,17.0,17,1,0,1,NO
57,17,17.0,17,0,0.0,0,17,17.0,17,1,0,1,NO
350,2579,88.93103448275862,232,1447,49.89655172413793,166,1158,39.93103448275862,221,29,2,12,YES
112,486,28.58823529411765,67,85,5.0,9,401,23.58823529411765,67,17,1,9,YES
69,91,13.0,67,12,1.7142857142857142,2,79,11.285714285714286,67,7,1,6,YES
136,266,19.0,168,364,26.0,46,484,34.57142857142857,168,14,1,9,YES
115,505,63.125,85,240,30.0,40,265,33.125,85,8,1,6,YES
39,39,39.0,39,0,0.0,0,39,39.0,39,1,0,1,YES
52,264,22.0,35,3,0.25,1,261,21.75,35,12,1,6,YES
243,911,50.611111111111114,136,133,7.388888888888889,20,798,44.333333333333336,136,18,1,9,YES
41,246,41.0,41,0,0.0,0,246,41.0,41,6,1,5,YES
44,50,7.142857142857143,44,6,0.8571428571428571,1,44,6.285714285714286,44,7,1,6,YES
66,179,22.375,70,133,16.625,22,94,11.75,70,8,1,6,YES
45,45,45.0,45,0,0.0,0,45,45.0,45,1,0,1,YES
72,17,17.0,17,0,0.0,0,17,17.0,17,1,0,1,NO
64,17,17.0,17,0,0.0,0,17,17.0,17,1,0,1,NO
155,17,17.0,17,0,0.0,0,17,17.0,17,1,0,1,NO
34,17,17.0,17,0,0.0,0,17,17.0,17,1,0,1,NO
38,17,17.0,17,0,0.0,0,17,17.0,17,1,0,1,NO
41,17,17.0,17,0,0.0,0,17,17.0,17,1,0,1,NO
23,17,17.0,17,0,0.0,0,17,17.0,17,1,0,1,NO
22,17,17.0,17,0,0.0,0,17,17.0,17,1,0,1,NO
60,17,17.0,17,0,0.0,0,17,17.0,17,1,0,1,NO
24,17,17.0,17,0,0.0,0,17,17.0,17,1,0,1,NO
22,17,17.0,17,0,0.0,0,17,17.0,17,1,0,1,NO
55,17,17.0,17,0,0.0,0,17,17.0,17,1,0,1,NO
45,17,17.0,17,0,0.0,0,17,17.0,17,1,0,1,NO
50,17,17.0,17,0,0.0,0,17,17.0,17,1,0,1,NO
38,17,17.0,17,0,0.0,0,17,17.0,17,1,0,1,NO
31,17,17.0,17,0,0.0,0,17,17.0,17,1,0,1,NO
80,177,35.4,63,0,0.0,0,177,35.4,63,5,0,3,YES
82,181,36.2,65,0,0.0,0,181,36.2,65,5,0,3,YES
179,396,44.0,162,3,0.3333333333333333,2,397,44.111111111111114,162,9,0,5,YES
40,97,19.4,23,0,0.0,0,97,19.4,23,5,0,3,YES
122,304,38.0,105,3,0.375,3,301,37.625,105,8,0,5,YES
51,122,20.333333333333332,34,3,0.5,3,119,19.833333333333332,34,6,0,4,YES
31,17,17.0,17,0,0.0,0,17,17.0,17,1,0,1,NO
28,17,17.0,17,0,0.0,0,17,17.0,17,1,0,1,NO
25,17,17.0,17,0,0.0,0,17,17.0,17,1,0,1,NO
25,17,17.0,17,0,0.0,0,17,17.0,17,1,0,1,NO
33,17,17.0,17,0,0.0,0,17,17.0,17,1,0,1,NO
435,30,15.0,17,0,0.0,0,30,15.0,17,2,0,2,NO
54,54,54.0,54,37,37.0,37,17,17.0,17,1,0,1,NO
39,17,17.0,17,0,0.0,0,17,17.0,17,1,0,1,NO
40,17,17.0,17,0,0.0,0,17,17.0,17,1,0,1,NO
45,17,17.0,17,0,0.0,0,17,17.0,17,1,0,1,NO
58,57,57.0,57,40,40.0,40,17,17.0,17,1,0,1,NO
110,109,109.0,109,92,92.0,92,17,17.0,17,1,0,1,NO
89,17,17.0,17,0,0.0,0,17,17.0,17,1,0,1,NO
57,57,57.0,57,40,40.0,40,17,17.0,17,1,0,1,NO
89,17,17.0,17,0,0.0,0,17,17.0,17,1,0,1,NO
52,17,17.0,17,0,0.0,0,17,17.0,17,1,0,1,NO
97,172,86.0,155,10,5.0,10,162,81.0,145,2,0,2,YES
47,17,17.0,17,0,0.0,0,17,17.0,17,1,0,1,NO
55,38,9.5,21,17,4.25,5,21,5.25,17,4,0,4,NO
108,26,13.0,17,1,0.5,1,25,12.5,17,2,0,2,NO
160,83,20.75,30,53,13.25,17,30,7.5,17,4,0,4,YES
124,101,25.25,48,49,12.25,13,52,13.0,35,4,0,4,NO
79,92,23.0,60,40,10.0,25,52,13.0,35,4,0,4,NO
79,33,8.25,19,15,3.75,9,18,4.5,17,4,0,4,NO
57,19,9.5,17,2,1.0,2,17,8.5,17,2,0,2,NO
57,20,10.0,17,3,1.5,3,17,8.5,17,2,0,2,NO
110,17,17.0,17,0,0.0,0,17,17.0,17,1,0,1,NO
69,33,8.25,22,15,3.75,5,18,4.5,17,4,0,4,NO
114,17,17.0,17,0,0.0,0,17,17.0,17,1,0,1,NO
89,17,17.0,17,0,0.0,0,17,17.0,17,1,0,1,NO
64,17,17.0,17,0,0.0,0,17,17.0,17,1,0,1,NO
23,17,17.0,17,0,0.0,0,17,17.0,17,1,0,1,NO
40,17,17.0,17,0,0.0,0,17,17.0,17,1,0,1,NO
25,17,17.0,17,0,0.0,0,17,17.0,17,1,0,1,NO
26,17,17.0,17,0,0.0,0,17,17.0,17,1,0,1,NO
59,17,17.0,17,0,0.0,0,17,17.0,17,1,0,1,NO
60,17,17.0,17,0,0.0,0,17,17.0,17,1,0,1,NO
51,17,17.0,17,0,0.0,0,17,17.0,17,1,0,1,NO
58,17,17.0,17,0,0.0,0,17,17.0,17,1,0,1,NO
61,17,17.0,17,0,0.0,0,17,17.0,17,1,0,1,NO
224,17,17.0,17,0,0.0,0,17,17.0,17,1,0,1,NO
32,17,17.0,17,0,0.0,0,17,17.0,17,1,0,1,NO
32,17,17.0,17,0,0.0,0,17,17.0,17,1,0,1,NO
32,17,17.0,17,0,0.0,0,17,17.0,17,1,0,1,NO
32,17,17.0,17,0,0.0,0,17,17.0,17,1,0,1,NO
23,17,17.0,17,0,0.0,0,17,17.0,17,1,0,1,NO
24,17,17.0,17,0,0.0,0,17,17.0,17,1,0,1,NO
105,17,17.0,17,0,0.0,0,17,17.0,17,1,0,1,YES
29,17,17.0,17,0,0.0,0,17,17.0,17,1,0,1,NO
34,17,17.0,17,0,0.0,0,17,17.0,17,1,0,1,NO
28,17,17.0,17,0,0.0,0,17,17.0,17,1,0,1,NO
31,17,17.0,17,0,0.0,0,17,17.0,17,1,0,1,NO
38,17,17.0,17,0,0.0,0,17,17.0,17,1,0,1,NO
32,17,17.0,17,0,0.0,0,17,17.0,17,1,0,1,NO
28,17,17.0,17,0,0.0,0,17,17.0,17,1,0,1,NO
41,17,17.0,17,0,0.0,0,17,17.0,17,1,0,1,NO
130,253,19.46153846153846,61,175,13.461538461538462,51,154,11.846153846153847,61,13,0,5,YES
41,17,17.0,17,0,0.0,0,17,17.0,17,1,0,1,NO
134,17,17.0,17,0,0.0,0,17,17.0,17,1,0,1,NO
29,17,17.0,17,0,0.0,0,17,17.0,17,1,0,1,NO
22,17,17.0,17,0,0.0,0,17,17.0,17,1,0,1,NO
25,17,17.0,17,0,0.0,0,17,17.0,17,1,0,1,NO
24,17,17.0,17,0,0.0,0,17,17.0,17,1,0,1,NO
28,17,17.0,17,0,0.0,0,17,17.0,17,1,0,1,NO
30,17,17.0,17,0,0.0,0,17,17.0,17,1,0,1,NO
198,17,17.0,17,0,0.0,0,17,17.0,17,1,0,1,NO
84,17,17.0,17,0,0.0,0,17,17.0,17,1,0,1,YES
22,17,17.0,17,0,0.0,0,17,17.0,17,1,0,1,NO
31,17,17.0,17,0,0.0,0,17,17.0,17,1,0,1,NO
32,17,17.0,17,0,0.0,0,17,17.0,17,1,0,1,NO
225,17,17.0,17,0,0.0,0,17,17.0,17,1,0,1,NO
230,271,20.846153846153847,59,202,15.538461538461538,62,171,13.153846153846153,59,13,1,6,YES
286,186,9.789473684210526,24,26,1.368421052631579,16,164,8.631578947368421,24,19,0,8,YES
106,17,17.0,17,0,0.0,0,17,17.0,17,1,0,1,NO
25,17,17.0,17,0,0.0,0,17,17.0,17,1,0,1,NO
52,17,17.0,17,0,0.0,0,17,17.0,17,1,0,1,NO
52,17,17.0,17,0,0.0,0,17,17.0,17,1,0,1,NO
72,17,17.0,17,0,0.0,0,17,17.0,17,1,0,1,NO
39,17,17.0,17,0,0.0,0,17,17.0,17,1,0,1,NO
48,17,17.0,17,0,0.0,0,17,17.0,17,1,0,1,NO
42,17,17.0,17,0,0.0,0,17,17.0,17,1,0,1,NO
67,67,67.0,67,50,50.0,50,17,17.0,17,1,0,1,NO
55,17,17.0,17,0,0.0,0,17,17.0,17,1,0,1,NO
57,17,17.0,17,0,0.0,0,17,17.0,17,1,0,1,NO
100,17,17.0,17,0,0.0,0,17,17.0,17,1,0,1,NO
42,17,17.0,17,0,0.0,0,17,17.0,17,1,0,1,NO
179,17,17.0,17,0,0.0,0,17,17.0,17,1,0,1,NO
42,17,17.0,17,0,0.0,0,17,17.0,17,1,0,1,NO
61,17,17.0,17,0,0.0,0,17,17.0,17,1,0,1,NO
24,17,17.0,17,0,0.0,0,17,17.0,17,1,0,1,NO
61,17,17.0,17,0,0.0,0,17,17.0,17,1,0,1,NO
181,17,17.0,17,0,0.0,0,17,17.0,17,1,0,1,NO
38,17,17.0,17,0,0.0,0,17,17.0,17,1,0,1,NO
57,57,57.0,57,40,40.0,40,17,17.0,17,1,0,1,NO
51,51,51.0,51,34,34.0,34,17,17.0,17,1,0,1,NO
60,60,60.0,60,43,43.0,43,17,17.0,17,1,0,1,NO
50,17,17.0,17,0,0.0,0,17,17.0,17,1,0,1,NO
51,17,17.0,17,0,0.0,0,17,17.0,17,1,0,1,NO
186,17,17.0,17,0,0.0,0,17,17.0,17,1,0,1,NO
52,17,17.0,17,0,0.0,0,17,17.0,17,1,0,1,NO
105,17,17.0,17,0,0.0,0,17,17.0,17,1,0,1,NO
63,17,17.0,17,0,0.0,0,17,17.0,17,1,0,1,NO
62,17,17.0,17,0,0.0,0,17,17.0,17,1,0,1,NO
139,860,107.5,139,26,3.25,13,834,104.25,139,8,1,5,YES
76,456,76.0,76,0,0.0,0,456,76.0,76,6,1,5,YES
60,17,17.0,17,0,0.0,0,17,17.0,17,1,0,1,NO
41,41,41.0,41,24,24.0,24,17,17.0,17,1,0,1,NO
31,17,17.0,17,0,0.0,0,17,17.0,17,1,0,1,NO
45,17,17.0,17,0,0.0,0,17,17.0,17,1,0,1,NO
85,17,17.0,17,0,0.0,0,17,17.0,17,1,0,1,NO
37,17,17.0,17,0,0.0,0,17,17.0,17,1,0,1,NO
61,17,17.0,17,0,0.0,0,17,17.0,17,1,0,1,NO
86,17,17.0,17,0,0.0,0,17,17.0,17,1,0,1,NO
34,34,34.0,34,17,17.0,17,17,17.0,17,1,0,1,NO
83,17,17.0,17,0,0.0,0,17,17.0,17,1,0,1,NO
54,17,17.0,17,0,0.0,0,17,17.0,17,1,0,1,NO
67,17,17.0,17,0,0.0,0,17,17.0,17,1,0,1,NO
62,17,17.0,17,0,0.0,0,17,17.0,17,1,0,1,NO
22,17,17.0,17,0,0.0,0,17,17.0,17,1,0,1,NO
29,17,17.0,17,0,0.0,0,17,17.0,17,1,0,1,NO
36,17,17.0,17,0,0.0,0,17,17.0,17,1,0,1,NO
33,17,17.0,17,0,0.0,0,17,17.0,17,1,0,1,NO
26,17,17.0,17,0,0.0,0,17,17.0,17,1,0,1,NO
44,17,17.0,17,0,0.0,0,17,17.0,17,1,0,1,NO
29,17,17.0,17,0,0.0,0,17,17.0,17,1,0,1,NO
29,17,17.0,17,0,0.0,0,17,17.0,17,1,0,1,NO
25,17,17.0,17,0,0.0,0,17,17.0,17,1,0,1,NO
53,17,17.0,17,0,0.0,0,17,17.0,17,1,0,1,NO
32,17,17.0,17,0,0.0,0,17,17.0,17,1,0,1,NO
53,17,17.0,17,0,0.0,0,17,17.0,17,1,0,1,NO
36,17,17.0,17,0,0.0,0,17,17.0,17,1,0,1,NO
22,17,17.0,17,0,0.0,0,17,17.0,17,1,0,1,NO
359,17,17.0,17,0,0.0,0,17,17.0,17,1,0,1,YES
33,17,17.0,17,0,0.0,0,17,17.0,17,1,0,1,NO
25,17,17.0,17,0,0.0,0,17,17.0,17,1,0,1,NO
28,17,17.0,17,0,0.0,0,17,17.0,17,1,0,1,NO
25,17,17.0,17,0,0.0,0,17,17.0,17,1,0,1,NO
25,17,17.0,17,0,0.0,0,17,17.0,17,1,0,1,NO
26,17,17.0,17,0,0.0,0,17,17.0,17,1,0,1,NO
50,17,17.0,17,0,0.0,0,17,17.0,17,1,0,1,NO
24,17,17.0,17,0,0.0,0,17,17.0,17,1,0,1,NO
25,17,17.0,17,0,0.0,0,17,17.0,17,1,0,1,NO
26,17,17.0,17,0,0.0,0,17,17.0,17,1,0,1,NO
31,17,17.0,17,0,0.0,0,17,17.0,17,1,0,1,NO
94,17,17.0,17,0,0.0,0,17,17.0,17,1,0,1,NO
61,17,17.0,17,0,0.0,0,17,17.0,17,1,0,1,NO
96,17,17.0,17,0,0.0,0,17,17.0,17,1,0,1,NO
217,17,17.0,17,0,0.0,0,17,17.0,17,1,0,1,NO
510,17,17.0,17,0,0.0,0,17,17.0,17,1,0,1,NO
56,17,17.0,17,0,0.0,0,17,17.0,17,1,0,1,NO
69,17,17.0,17,0,0.0,0,17,17.0,17,1,0,1,NO
159,17,17.0,17,0,0.0,0,17,17.0,17,1,0,1,NO
142,17,17.0,17,0,0.0,0,17,17.0,17,1,0,1,NO
149,17,17.0,17,0,0.0,0,17,17.0,17,1,0,1,NO
139,67,9.571428571428571,45,16,2.2857142857142856,11,51,7.285714285714286,34,7,0,4,YES
100,17,17.0,17,0,0.0,0,17,17.0,17,1,0,1,NO
98,17,17.0,17,0,0.0,0,17,17.0,17,1,0,1,NO
171,17,17.0,17,0,0.0,0,17,17.0,17,1,0,1,NO
351,17,17.0,17,0,0.0,0,17,17.0,17,1,0,1,NO
37,17,17.0,17,0,0.0,0,17,17.0,17,1,0,1,NO
54,17,17.0,17,0,0.0,0,17,17.0,17,1,0,1,NO
44,17,17.0,17,0,0.0,0,17,17.0,17,1,0,1,NO
35,17,17.0,17,0,0.0,0,17,17.0,17,1,0,1,NO
24,17,17.0,17,0,0.0,0,17,17.0,17,1,0,1,NO
84,54,13.5,22,56,14.0,41,36,9.0,19,4,0,4,NO
217,355,23.666666666666668,50,158,10.533333333333333,35,203,13.533333333333333,28,15,2,7,YES
177,17,17.0,17,0,0.0,0,17,17.0,17,1,0,1,NO
59,17,17.0,17,0,0.0,0,17,17.0,17,1,0,1,NO
68,17,17.0,17,0,0.0,0,17,17.0,17,1,0,1,NO
156,17,17.0,17,0,0.0,0,17,17.0,17,1,0,1,NO
90,29,14.5,17,3,1.5,3,26,13.0,17,2,0,2,YES
43,17,17.0,17,0,0.0,0,17,17.0,17,1,0,1,NO
43,17,17.0,17,0,0.0,0,17,17.0,17,1,0,1,NO
38,17,17.0,17,0,0.0,0,17,17.0,17,1,0,1,NO
54,28,7.0,18,6,1.5,3,22,5.5,17,4,0,4,NO
64,17,17.0,17,0,0.0,0,17,17.0,17,1,0,1,NO
124,17,17.0,17,0,0.0,0,17,17.0,17,1,0,1,NO
47,17,17.0,17,0,0.0,0,17,17.0,17,1,0,1,NO
144,227,45.4,83,182,36.4,88,65,13.0,38,5,0,4,YES
58,17,17.0,17,0,0.0,0,17,17.0,17,1,0,1,NO
109,113,12.555555555555555,17,48,5.333333333333333,6,65,7.222222222222222,17,9,0,7,YES
161,17,17.0,17,0,0.0,0,17,17.0,17,1,0,1,NO
113,680,85.0,113,2,0.25,1,678,84.75,113,8,1,5,YES
452,687,21.46875,111,338,10.5625,40,415,12.96875,88,32,1,12,YES
186,17,17.0,17,0,0.0,0,17,17.0,17,1,0,1,NO
51,17,17.0,17,0,0.0,0,17,17.0,17,1,0,1,NO
375,17,17.0,17,0,0.0,0,17,17.0,17,1,0,1,NO
48,24,12.0,17,2,1.0,2,22,11.0,17,2,0,2,NO
30,17,17.0,17,0,0.0,0,17,17.0,17,1,0,1,NO
377,29,7.25,17,3,0.75,1,26,6.5,17,4,0,4,YES
40,17,17.0,17,0,0.0,0,17,17.0,17,1,0,1,NO
813,17,17.0,17,0,0.0,0,17,17.0,17,1,0,1,NO
112,31,7.75,18,5,1.25,2,26,6.5,17,4,0,4,NO
183,17,17.0,17,0,0.0,0,17,17.0,17,1,0,1,NO
32,17,17.0,17,0,0.0,0,17,17.0,17,1,0,1,NO
32,17,17.0,17,0,0.0,0,17,17.0,17,1,0,1,NO
26,17,17.0,17,0,0.0,0,17,17.0,17,1,0,1,NO
174,17,17.0,17,0,0.0,0,17,17.0,17,1,0,1,NO
31,17,17.0,17,0,0.0,0,17,17.0,17,1,0,1,NO
24,17,17.0,17,0,0.0,0,17,17.0,17,1,0,1,NO
34,17,17.0,17,0,0.0,0,17,17.0,17,1,0,1,NO
123,17,17.0,17,0,0.0,0,17,17.0,17,1,0,1,NO
87,17,17.0,17,0,0.0,0,17,17.0,17,1,0,1,NO
26,17,17.0,17,0,0.0,0,17,17.0,17,1,0,1,NO
25,17,17.0,17,0,0.0,0,17,17.0,17,1,0,1,NO
23,17,17.0,17,0,0.0,0,17,17.0,17,1,0,1,NO
23,17,17.0,17,0,0.0,0,17,17.0,17,1,0,1,NO
23,17,17.0,17,0,0.0,0,17,17.0,17,1,0,1,NO
33,17,17.0,17,0,0.0,0,17,17.0,17,1,0,1,NO
32,17,17.0,17,0,0.0,0,17,17.0,17,1,0,1,NO
29,17,17.0,17,0,0.0,0,17,17.0,17,1,0,1,NO
22,17,17.0,17,0,0.0,0,17,17.0,17,1,0,1,NO
25,17,17.0,17,0,0.0,0,17,17.0,17,1,0,1,NO
24,17,17.0,17,0,0.0,0,17,17.0,17,1,0,1,NO
31,17,17.0,17,0,0.0,0,17,17.0,17,1,0,1,NO
31,17,17.0,17,0,0.0,0,17,17.0,17,1,0,1,NO
26,17,17.0,17,0,0.0,0,17,17.0,17,1,0,1,NO
26,17,17.0,17,0,0.0,0,17,17.0,17,1,0,1,NO
26,17,17.0,17,0,0.0,0,17,17.0,17,1,0,1,NO
36,17,17.0,17,0,0.0,0,17,17.0,17,1,0,1,NO
65,17,17.0,17,0,0.0,0,17,17.0,17,1,0,1,NO
41,17,17.0,17,0,0.0,0,17,17.0,17,1,0,1,NO
39,17,17.0,17,0,0.0,0,17,17.0,17,1,0,1,NO
38,17,17.0,17,0,0.0,0,17,17.0,17,1,0,1,NO
31,17,17.0,17,0,0.0,0,17,17.0,17,1,0,1,NO
125,17,17.0,17,0,0.0,0,17,17.0,17,1,0,1,NO
38,17,17.0,17,0,0.0,0,17,17.0,17,1,0,1,NO
48,17,17.0,17,0,0.0,0,17,17.0,17,1,0,1,NO
44,17,17.0,17,0,0.0,0,17,17.0,17,1,0,1,NO
42,17,17.0,17,0,0.0,0,17,17.0,17,1,0,1,NO
46,17,17.0,17,0,0.0,0,17,17.0,17,1,0,1,NO
42,17,17.0,17,0,0.0,0,17,17.0,17,1,0,1,NO
113,17,17.0,17,0,0.0,0,17,17.0,17,1,0,1,NO
53,17,17.0,17,0,0.0,0,17,17.0,17,1,0,1,NO
56,17,17.0,17,0,0.0,0,17,17.0,17,1,0,1,NO
61,17,17.0,17,0,0.0,0,17,17.0,17,1,0,1,NO
49,17,17.0,17,0,0.0,0,17,17.0,17,1,0,1,NO
53,17,17.0,17,0,0.0,0,17,17.0,17,1,0,1,NO
29,17,17.0,17,0,0.0,0,17,17.0,17,1,0,1,NO
48,17,17.0,17,0,0.0,0,17,17.0,17,1,0,1,NO
96,17,17.0,17,0,0.0,0,17,17.0,17,1,0,1,NO
95,17,17.0,17,0,0.0,0,17,17.0,17,1,0,1,NO
51,17,17.0,17,0,0.0,0,17,17.0,17,1,0,1,NO
29,17,17.0,17,0,0.0,0,17,17.0,17,1,0,1,NO
159,17,17.0,17,0,0.0,0,17,17.0,17,1,0,1,NO
53,17,17.0,17,0,0.0,0,17,17.0,17,1,0,1,NO
56,17,17.0,17,0,0.0,0,17,17.0,17,1,0,1,NO
27,17,17.0,17,0,0.0,0,17,17.0,17,1,0,1,NO
95,17,17.0,17,0,0.0,0,17,17.0,17,1,0,1,NO
40,17,17.0,17,0,0.0,0,17,17.0,17,1,0,1,NO
45,17,17.0,17,0,0.0,0,17,17.0,17,1,0,1,NO
61,17,17.0,17,0,0.0,0,17,17.0,17,1,0,1,NO
53,17,17.0,17,0,0.0,0,17,17.0,17,1,0,1,NO
38,17,17.0,17,0,0.0,0,17,17.0,17,1,0,1,NO
64,17,17.0,17,0,0.0,0,17,17.0,17,1,0,1,NO
31,17,17.0,17,0,0.0,0,17,17.0,17,1,0,1,NO
52,17,17.0,17,0,0.0,0,17,17.0,17,1,0,1,NO
29,17,17.0,17,0,0.0,0,17,17.0,17,1,0,1,NO
33,17,17.0,17,0,0.0,0,17,17.0,17,1,0,1,NO
39,17,17.0,17,0,0.0,0,17,17.0,17,1,0,1,NO
218,17,17.0,17,0,0.0,0,17,17.0,17,1,0,1,NO
40,17,17.0,17,0,0.0,0,17,17.0,17,1,0,1,NO
27,17,17.0,17,0,0.0,0,17,17.0,17,1,0,1,NO
84,17,17.0,17,0,0.0,0,17,17.0,17,1,0,1,NO
62,17,17.0,17,0,0.0,0,17,17.0,17,1,0,1,NO
80,17,17.0,17,0,0.0,0,17,17.0,17,1,0,1,NO
59,17,17.0,17,0,0.0,0,17,17.0,17,1,0,1,NO
93,17,17.0,17,0,0.0,0,17,17.0,17,1,0,1,NO
107,17,17.0,17,0,0.0,0,17,17.0,17,1,0,1,NO
73,17,17.0,17,0,0.0,0,17,17.0,17,1,0,1,NO
106,17,17.0,17,0,0.0,0,17,17.0,17,1,0,1,NO
76,17,17.0,17,0,0.0,0,17,17.0,17,1,0,1,NO
92,17,17.0,17,0,0.0,0,17,17.0,17,1,0,1,NO
24,17,17.0,17,0,0.0,0,17,17.0,17,1,0,1,NO
33,17,17.0,17,0,0.0,0,17,17.0,17,1,0,1,NO
31,17,17.0,17,0,0.0,0,17,17.0,17,1,0,1,NO
62,17,17.0,17,0,0.0,0,17,17.0,17,1,0,1,NO
77,17,17.0,17,0,0.0,0,17,17.0,17,1,0,1,NO
25,17,17.0,17,0,0.0,0,17,17.0,17,1,0,1,NO
94,17,17.0,17,0,0.0,0,17,17.0,17,1,0,1,NO
201,17,17.0,17,0,0.0,0,17,17.0,17,1,0,1,NO
171,17,17.0,17,0,0.0,0,17,17.0,17,1,0,1,NO
198,17,17.0,17,0,0.0,0,17,17.0,17,1,0,1,NO
49,17,17.0,17,0,0.0,0,17,17.0,17,1,0,1,NO
38,17,17.0,17,0,0.0,0,17,17.0,17,1,0,1,NO
178,24,3.0,17,0,0.0,0,24,3.0,17,8,0,7,YES
94,17,17.0,17,0,0.0,0,17,17.0,17,1,0,1,NO
138,17,17.0,17,0,0.0,0,17,17.0,17,1,0,1,NO
25,17,17.0,17,0,0.0,0,17,17.0,17,1,0,1,NO
25,17,17.0,17,0,0.0,0,17,17.0,17,1,0,1,NO
36,17,17.0,17,0,0.0,0,17,17.0,17,1,0,1,NO
26,17,17.0,17,0,0.0,0,17,17.0,17,1,0,1,NO
44,17,17.0,17,0,0.0,0,17,17.0,17,1,0,1,NO
52,17,17.0,17,0,0.0,0,17,17.0,17,1,0,1,NO
50,17,17.0,17,0,0.0,0,17,17.0,17,1,0,1,NO
75,17,17.0,17,0,0.0,0,17,17.0,17,1,0,1,NO
28,17,17.0,17,0,0.0,0,17,17.0,17,1,0,1,NO
31,17,17.0,17,0,0.0,0,17,17.0,17,1,0,1,NO
41,17,17.0,17,0,0.0,0,17,17.0,17,1,0,1,NO
26,17,17.0,17,0,0.0,0,17,17.0,17,1,0,1,NO
39,17,17.0,17,0,0.0,0,17,17.0,17,1,0,1,NO
26,17,17.0,17,0,0.0,0,17,17.0,17,1,0,1,NO
30,17,17.0,17,0,0.0,0,17,17.0,17,1,0,1,NO
25,17,17.0,17,0,0.0,0,17,17.0,17,1,0,1,NO
33,17,17.0,17,0,0.0,0,17,17.0,17,1,0,1,NO
44,17,17.0,17,0,0.0,0,17,17.0,17,1,0,1,NO
23,17,17.0,17,0,0.0,0,17,17.0,17,1,0,1,NO
80,17,17.0,17,0,0.0,0,17,17.0,17,1,0,1,NO
79,17,17.0,17,0,0.0,0,17,17.0,17,1,0,1,NO
26,17,17.0,17,0,0.0,0,17,17.0,17,1,0,1,NO
83,17,17.0,17,0,0.0,0,17,17.0,17,1,0,1,NO
92,17,17.0,17,0,0.0,0,17,17.0,17,1,0,1,NO
26,17,17.0,17,0,0.0,0,17,17.0,17,1,0,1,NO
85,17,17.0,17,0,0.0,0,17,17.0,17,1,0,1,NO
67,17,17.0,17,0,0.0,0,17,17.0,17,1,0,1,NO
124,57,6.333333333333333,17,8,0.8888888888888888,1,49,5.444444444444445,17,9,0,6,YES
26,17,17.0,17,0,0.0,0,17,17.0,17,1,0,1,NO
25,115,10.454545454545455,17,0,0.0,0,115,10.454545454545455,17,11,0,7,YES
76,17,17.0,17,0,0.0,0,17,17.0,17,1,0,1,NO
109,17,17.0,17,0,0.0,0,17,17.0,17,1,0,1,NO
24,17,17.0,17,0,0.0,0,17,17.0,17,1,0,1,NO
27,17,17.0,17,0,0.0,0,17,17.0,17,1,0,1,NO
47,17,17.0,17,0,0.0,0,17,17.0,17,1,0,1,NO
185,17,17.0,17,0,0.0,0,17,17.0,17,1,0,1,NO
96,17,17.0,17,0,0.0,0,17,17.0,17,1,0,1,NO
97,17,17.0,17,0,0.0,0,17,17.0,17,1,0,1,NO
23,17,17.0,17,0,0.0,0,17,17.0,17,1,0,1,NO
154,17,17.0,17,0,0.0,0,17,17.0,17,1,0,1,NO
47,17,17.0,17,0,0.0,0,17,17.0,17,1,0,1,NO
176,225,25.0,26,8,0.8888888888888888,1,217,24.11111111111111,25,9,0,6,YES
166,17,17.0,17,0,0.0,0,17,17.0,17,1,0,1,NO
36,17,17.0,17,0,0.0,0,17,17.0,17,1,0,1,NO
32,17,17.0,17,0,0.0,0,17,17.0,17,1,0,1,NO
30,17,17.0,17,0,0.0,0,17,17.0,17,1,0,1,NO
37,17,17.0,17,0,0.0,0,17,17.0,17,1,0,1,NO
33,17,17.0,17,0,0.0,0,17,17.0,17,1,0,1,NO
32,17,17.0,17,0,0.0,0,17,17.0,17,1,0,1,NO
289,29,7.25,17,0,0.0,0,29,7.25,17,4,0,4,YES
66,17,17.0,17,0,0.0,0,17,17.0,17,1,0,1,NO
425,17,17.0,17,0,0.0,0,17,17.0,17,1,0,1,NO
722,17,17.0,17,0,0.0,0,17,17.0,17,1,0,1,NO
147,17,17.0,17,0,0.0,0,17,17.0,17,1,0,1,NO
135,69,9.857142857142858,47,16,2.2857142857142856,11,53,7.571428571428571,36,7,0,4,YES
92,17,17.0,17,0,0.0,0,17,17.0,17,1,0,1,NO
44,17,17.0,17,0,0.0,0,17,17.0,17,1,0,1,NO
72,17,17.0,17,0,0.0,0,17,17.0,17,1,0,1,NO
328,17,17.0,17,0,0.0,0,17,17.0,17,1,0,1,NO
61,17,17.0,17,0,0.0,0,17,17.0,17,1,0,1,NO
28,17,17.0,17,0,0.0,0,17,17.0,17,1,0,1,NO
50,17,17.0,17,0,0.0,0,17,17.0,17,1,0,1,NO
35,17,17.0,17,0,0.0,0,17,17.0,17,1,0,1,NO
142,77,11.0,21,20,2.857142857142857,4,57,8.142857142857142,17,7,0,5,YES
153,770,110.0,154,4,0.5714285714285714,3,768,109.71428571428571,154,7,1,4,YES
78,156,78.0,78,0,0.0,0,156,78.0,78,2,1,1,YES
87,174,87.0,87,0,0.0,0,174,87.0,87,2,1,1,YES
68,136,68.0,68,0,0.0,0,136,68.0,68,2,1,1,YES
58,124,20.666666666666668,58,8,1.3333333333333333,2,116,19.333333333333332,58,6,3,4,YES
196,392,196.0,196,0,0.0,0,392,196.0,196,2,1,1,YES
132,496,82.66666666666667,132,16,2.6666666666666665,4,480,80.0,132,6,1,5,YES
64,128,64.0,64,0,0.0,0,128,64.0,64,2,1,1,YES
173,346,173.0,173,0,0.0,0,346,173.0,173,2,1,1,YES
246,492,246.0,246,0,0.0,0,492,246.0,246,2,1,1,YES
107,214,107.0,107,0,0.0,0,214,107.0,107,2,1,1,YES
121,1210,121.0,121,0,0.0,0,1210,121.0,121,10,1,5,YES
110,221,73.66666666666667,110,2,0.6666666666666666,2,221,73.66666666666667,110,3,1,2,YES
58,116,58.0,58,0,0.0,0,116,58.0,58,2,1,1,YES
37,74,37.0,37,0,0.0,0,74,37.0,37,2,1,1,YES
142,285,95.0,142,2,0.6666666666666666,2,285,95.0,142,3,1,2,YES
114,228,114.0,114,0,0.0,0,228,114.0,114,2,1,1,YES
59,118,59.0,59,0,0.0,0,118,59.0,59,2,1,1,YES
64,128,64.0,64,0,0.0,0,128,64.0,64,2,1,1,YES
164,328,164.0,164,0,0.0,0,328,164.0,164,2,1,1,YES
70,140,70.0,70,0,0.0,0,140,70.0,70,2,1,1,YES
32,64,32.0,32,0,0.0,0,64,32.0,32,2,1,1,YES
148,296,148.0,148,0,0.0,0,296,148.0,148,2,1,1,YES
156,312,156.0,156,0,0.0,0,312,156.0,156,2,1,1,YES
119,238,119.0,119,0,0.0,0,238,119.0,119,2,1,1,YES
118,236,118.0,118,0,0.0,0,236,118.0,118,2,1,1,YES
156,312,156.0,156,0,0.0,0,312,156.0,156,2,1,1,YES
85,170,85.0,85,0,0.0,0,170,85.0,85,2,1,1,YES
48,140,11.666666666666666,47,6,0.5,1,134,11.166666666666666,47,12,2,8,YES
33,66,33.0,33,0,0.0,0,66,33.0,33,2,1,1,YES
146,292,146.0,146,0,0.0,0,292,146.0,146,2,1,1,YES
113,226,113.0,113,0,0.0,0,226,113.0,113,2,1,1,YES
147,294,147.0,147,0,0.0,0,294,147.0,147,2,1,1,YES
40,80,40.0,40,0,0.0,0,80,40.0,40,2,1,1,YES
125,250,125.0,125,0,0.0,0,250,125.0,125,2,1,1,YES
252,504,252.0,252,0,0.0,0,504,252.0,252,2,1,1,YES
368,736,368.0,368,0,0.0,0,736,368.0,368,2,1,1,YES
106,212,106.0,106,0,0.0,0,212,106.0,106,2,1,1,YES
181,362,181.0,181,0,0.0,0,362,181.0,181,2,1,1,YES
69,414,69.0,69,0,0.0,0,414,69.0,69,6,0,5,NO
77,462,77.0,77,0,0.0,0,462,77.0,77,6,0,5,YES
83,505,38.84615384615385,83,7,0.5384615384615384,1,498,38.30769230769231,83,13,1,7,YES
48,288,48.0,48,0,0.0,0,288,48.0,48,6,0,5,NO
85,510,85.0,85,0,0.0,0,510,85.0,85,6,0,5,NO
43,271,20.846153846153847,43,7,0.5384615384615384,1,264,20.307692307692307,43,13,1,7,YES
90,540,90.0,90,0,0.0,0,540,90.0,90,6,0,5,NO
202,1212,202.0,202,0,0.0,0,1212,202.0,202,6,0,5,NO
135,810,135.0,135,0,0.0,0,810,135.0,135,6,0,5,NO
30,180,30.0,30,0,0.0,0,180,30.0,30,6,0,5,NO
29,174,29.0,29,0,0.0,0,174,29.0,29,6,0,5,NO
69,414,69.0,69,0,0.0,0,414,69.0,69,6,0,5,NO
52,312,52.0,52,0,0.0,0,312,52.0,52,6,0,5,NO
89,534,89.0,89,0,0.0,0,534,89.0,89,6,0,5,NO
31,204,29.142857142857142,31,0,0.0,0,204,29.142857142857142,31,7,0,5,NO
233,1415,202.14285714285714,233,0,0.0,0,1415,202.14285714285714,233,7,0,5,YES
40,240,40.0,40,0,0.0,0,240,40.0,40,6,0,5,NO
164,1004,77.23076923076923,164,14,1.0769230769230769,2,990,76.15384615384616,164,13,1,7,YES
40,240,40.0,40,0,0.0,0,240,40.0,40,6,0,5,NO
32,192,32.0,32,0,0.0,0,192,32.0,32,6,0,5,NO
139,450,112.5,139,9,2.25,9,441,110.25,139,4,1,3,NO
131,405,101.25,131,10,2.5,10,395,98.75,131,4,1,3,YES
149,459,114.75,149,8,2.0,8,451,112.75,149,4,1,3,YES
86,258,86.0,86,0,0.0,0,258,86.0,86,3,1,3,NO
52,173,43.25,52,0,0.0,0,173,43.25,52,4,1,3,NO
88,264,88.0,88,0,0.0,0,264,88.0,88,3,1,3,NO
42,126,42.0,42,0,0.0,0,126,42.0,42,3,1,3,NO
32,96,32.0,32,0,0.0,0,96,32.0,32,3,1,3,NO
40,137,34.25,40,0,0.0,0,137,34.25,40,4,1,3,NO
51,153,51.0,51,0,0.0,0,153,51.0,51,3,1,3,NO
81,243,81.0,81,0,0.0,0,243,81.0,81,3,1,3,NO
35,105,35.0,35,0,0.0,0,105,35.0,35,3,1,3,NO
55,237,47.4,55,0,0.0,0,237,47.4,55,5,1,3,NO
46,138,46.0,46,0,0.0,0,138,46.0,46,3,1,3,NO
46,138,46.0,46,0,0.0,0,138,46.0,46,3,1,3,NO
27,98,24.5,27,0,0.0,0,98,24.5,27,4,1,3,NO
12,53,13.25,17,0,0.0,0,53,13.25,17,4,1,3,NO
48,146,36.5,48,2,0.5,2,144,36.0,48,4,1,3,NO
317,1024,204.8,317,32,6.4,32,992,198.4,317,5,1,3,NO
29,104,26.0,29,0,0.0,0,104,26.0,29,4,1,3,NO
14,59,14.75,17,0,0.0,0,59,14.75,17,4,1,3,NO
83,249,83.0,83,0,0.0,0,249,83.0,83,3,1,3,NO
54,179,44.75,54,0,0.0,0,179,44.75,54,4,1,3,NO
83,249,83.0,83,0,0.0,0,249,83.0,83,3,1,3,NO
40,120,40.0,40,0,0.0,0,120,40.0,40,3,1,3,NO
32,96,32.0,32,0,0.0,0,96,32.0,32,3,1,3,NO
40,137,34.25,40,0,0.0,0,137,34.25,40,4,1,3,NO
50,150,50.0,50,0,0.0,0,150,50.0,50,3,1,3,NO
81,243,81.0,81,0,0.0,0,243,81.0,81,3,1,3,NO
35,105,35.0,35,0,0.0,0,105,35.0,35,3,1,3,NO
54,233,46.6,54,0,0.0,0,233,46.6,54,5,1,3,NO
46,138,46.0,46,0,0.0,0,138,46.0,46,3,1,3,NO
46,138,46.0,46,0,0.0,0,138,46.0,46,3,1,3,NO
86,221,24.555555555555557,86,14,1.5555555555555556,2,207,23.0,86,9,1,6,YES
25,50,25.0,25,0,0.0,0,50,25.0,25,2,1,1,YES
152,321,22.928571428571427,147,7,0.5,1,314,22.428571428571427,147,14,2,7,YES
94,188,94.0,94,0,0.0,0,188,94.0,94,2,1,1,YES
29,58,29.0,29,0,0.0,0,58,29.0,29,2,1,1,YES
52,111,12.333333333333334,52,7,0.7777777777777778,1,104,11.555555555555555,52,9,4,8,YES
43,86,43.0,43,0,0.0,0,86,43.0,43,2,1,1,YES
195,390,195.0,195,0,0.0,0,390,195.0,195,2,1,1,YES
243,827,35.95652173913044,243,353,15.347826086956522,34,536,23.304347826086957,243,23,4,12,YES
28,56,28.0,28,0,0.0,0,56,28.0,28,2,1,1,YES
37,74,37.0,37,0,0.0,0,74,37.0,37,2,1,1,YES
69,187,20.77777777777778,69,14,1.5555555555555556,2,173,19.22222222222222,69,9,1,6,YES
28,56,28.0,28,0,0.0,0,56,28.0,28,2,1,1,YES
273,982,28.88235294117647,265,230,6.764705882352941,132,998,29.352941176470587,265,34,4,11,YES
36,101,9.181818181818182,36,12,1.0909090909090908,3,95,8.636363636363637,36,11,1,3,YES
51,102,51.0,51,0,0.0,0,102,51.0,51,2,1,1,YES
38,76,38.0,38,0,0.0,0,76,38.0,38,2,1,1,YES
52,104,52.0,52,0,0.0,0,104,52.0,52,2,1,1,YES
37,74,37.0,37,0,0.0,0,74,37.0,37,2,1,1,YES
46,92,46.0,46,0,0.0,0,92,46.0,46,2,1,1,YES
5,77,5.923076923076923,17,10,0.7692307692307693,5,87,6.6923076923076925,17,13,2,7,YES
113,226,113.0,113,0,0.0,0,226,113.0,113,2,1,1,YES
36,72,36.0,36,0,0.0,0,72,36.0,36,2,1,1,YES
116,232,116.0,116,0,0.0,0,232,116.0,116,2,1,1,YES
116,342,26.307692307692307,89,51,3.923076923076923,11,291,22.384615384615383,89,13,2,5,YES
48,194,38.8,48,2,0.4,2,192,38.4,48,5,1,3,NO
32,128,32.0,32,0,0.0,0,128,32.0,32,4,1,3,NO
34,141,28.2,37,5,1.0,5,142,28.4,37,5,1,3,NO
26,108,18.0,26,4,0.6666666666666666,3,108,18.0,26,6,1,3,NO
50,100,50.0,50,0,0.0,0,100,50.0,50,2,1,1,YES
31,62,31.0,31,0,0.0,0,62,31.0,31,2,1,1,YES
98,196,98.0,98,0,0.0,0,196,98.0,98,2,1,1,YES
26,52,26.0,26,0,0.0,0,52,26.0,26,2,1,1,YES
25,50,25.0,25,0,0.0,0,50,25.0,25,2,1,1,YES
40,80,40.0,40,0,0.0,0,80,40.0,40,2,1,1,YES
59,118,59.0,59,0,0.0,0,118,59.0,59,2,1,1,YES
36,72,36.0,36,0,0.0,0,72,36.0,36,2,1,1,YES
58,116,58.0,58,0,0.0,0,116,58.0,58,2,1,1,YES
37,74,37.0,37,0,0.0,0,74,37.0,37,2,1,1,YES
268,536,268.0,268,0,0.0,0,536,268.0,268,2,1,1,YES
99,420,52.5,99,24,3.0,14,402,50.25,99,8,1,3,NO
57,235,39.166666666666664,57,7,1.1666666666666667,4,228,38.0,57,6,1,3,NO
31,124,24.8,31,0,0.0,0,124,24.8,31,5,1,3,NO
70,140,70.0,70,0,0.0,0,140,70.0,70,2,1,1,YES
41,164,41.0,41,0,0.0,0,164,41.0,41,4,1,3,NO
28,112,28.0,28,0,0.0,0,112,28.0,28,4,1,3,NO
34,141,28.2,37,5,1.0,5,142,28.4,37,5,1,3,NO
26,109,18.166666666666668,27,5,0.8333333333333334,4,110,18.333333333333332,27,6,1,3,NO
72,0,0.0,0,0,0.0,0,0,0.0,0,0,0,0,NO
1424,4211,79.45283018867924,459,1509,28.471698113207548,133,2796,52.75471698113208,381,53,8,15,YES
345,1568,98.0,139,114,7.125,19,1454,90.875,120,16,3,10,YES
36,12,2.0,2,6,1.0,1,6,1.0,1,6,1,4,YES
32,192,32.0,32,0,0.0,0,192,32.0,32,6,1,4,YES
49,12,2.0,2,0,0.0,0,12,2.0,2,6,1,4,YES
27,0,0.0,0,0,0.0,0,0,0.0,0,0,0,0,NO
423,1264,74.3529411764706,154,218,12.823529411764707,29,1046,61.529411764705884,132,17,4,7,YES
119,0,0.0,0,0,0.0,0,0,0.0,0,0,0,0,NO
153,0,0.0,0,0,0.0,0,0,0.0,0,0,0,0,NO
51,0,0.0,0,0,0.0,0,0,0.0,0,0,0,0,NO
51,0,0.0,0,0,0.0,0,0,0.0,0,0,0,0,NO
108,0,0.0,0,0,0.0,0,0,0.0,0,0,0,0,NO
46,0,0.0,0,0,0.0,0,0,0.0,0,0,0,0,NO
53,0,0.0,0,0,0.0,0,0,0.0,0,0,0,0,NO
436,0,0.0,0,0,0.0,0,0,0.0,0,0,0,0,NO
382,0,0.0,0,0,0.0,0,0,0.0,0,0,0,0,NO
30,0,0.0,0,0,0.0,0,0,0.0,0,0,0,0,NO
22,0,0.0,0,0,0.0,0,0,0.0,0,0,0,0,NO
108,324,54.0,54,222,37.0,37,102,17.0,17,6,1,4,YES
253,552,92.0,92,48,8.0,8,504,84.0,84,6,1,4,YES
75,0,0.0,0,0,0.0,0,0,0.0,0,0,0,0,NO
93,0,0.0,0,0,0.0,0,0,0.0,0,0,0,0,NO
49,0,0.0,0,0,0.0,0,0,0.0,0,0,0,0,NO
383,0,0.0,0,0,0.0,0,0,0.0,0,0,0,0,NO
59,0,0.0,0,0,0.0,0,0,0.0,0,0,0,0,NO
124,192,32.0,32,18,3.0,3,174,29.0,29,6,1,4,YES
344,0,0.0,0,0,0.0,0,0,0.0,0,0,0,0,YES
344,2070,345.0,345,0,0.0,0,2070,345.0,345,6,1,4,YES
443,0,0.0,0,0,0.0,0,0,0.0,0,0,0,0,YES
1127,0,0.0,0,0,0.0,0,0,0.0,0,0,0,0,YES
614,0,0.0,0,0,0.0,0,0,0.0,0,0,0,0,YES
723,0,0.0,0,0,0.0,0,0,0.0,0,0,0,0,YES
402,0,0.0,0,0,0.0,0,0,0.0,0,0,0,0,YES
389,2340,390.0,390,0,0.0,0,2340,390.0,390,6,1,4,YES
344,0,0.0,0,0,0.0,0,0,0.0,0,0,0,0,YES
441,0,0.0,0,0,0.0,0,0,0.0,0,0,0,0,YES
1079,624,104.0,104,36,6.0,6,588,98.0,98,6,1,4,YES
2346,1998,333.0,333,114,19.0,19,1884,314.0,314,6,1,4,YES
625,558,186.0,186,6,2.0,2,552,184.0,184,3,1,2,YES
436,0,0.0,0,0,0.0,0,0,0.0,0,0,0,0,YES
335,0,0.0,0,0,0.0,0,0,0.0,0,0,0,0,YES
695,0,0.0,0,0,0.0,0,0,0.0,0,0,0,0,YES
824,0,0.0,0,0,0.0,0,0,0.0,0,0,0,0,YES
441,0,0.0,0,0,0.0,0,0,0.0,0,0,0,0,YES
679,0,0.0,0,0,0.0,0,0,0.0,0,0,0,0,YES
344,0,0.0,0,0,0.0,0,0,0.0,0,0,0,0,YES
479,0,0.0,0,0,0.0,0,0,0.0,0,0,0,0,YES
549,0,0.0,0,0,0.0,0,0,0.0,0,0,0,0,YES
336,0,0.0,0,0,0.0,0,0,0.0,0,0,0,0,YES
16276,17286,2881.0,2881,678,113.0,113,16608,2768.0,2768,6,1,4,YES
344,0,0.0,0,0,0.0,0,0,0.0,0,0,0,0,YES
241,0,0.0,0,0,0.0,0,0,0.0,0,0,0,0,YES
565,0,0.0,0,0,0.0,0,0,0.0,0,0,0,0,YES
433,0,0.0,0,0,0.0,0,0,0.0,0,0,0,0,YES
443,0,0.0,0,0,0.0,0,0,0.0,0,0,0,0,YES
772,0,0.0,0,0,0.0,0,0,0.0,0,0,0,0,YES
443,0,0.0,0,0,0.0,0,0,0.0,0,0,0,0,YES
676,0,0.0,0,0,0.0,0,0,0.0,0,0,0,0,YES
478,0,0.0,0,0,0.0,0,0,0.0,0,0,0,0,YES
452,582,97.0,97,6,1.0,1,576,96.0,96,6,1,4,YES
722,0,0.0,0,0,0.0,0,0,0.0,0,0,0,0,YES
1124,1146,191.0,191,6,1.0,1,1140,190.0,190,6,1,4,YES
61,0,0.0,0,0,0.0,0,0,0.0,0,0,0,0,YES
1101,1146,191.0,191,6,1.0,1,1140,190.0,190,6,1,4,YES
43,0,0.0,0,0,0.0,0,0,0.0,0,0,0,0,NO
61,0,0.0,0,0,0.0,0,0,0.0,0,0,0,0,NO
38,0,0.0,0,0,0.0,0,0,0.0,0,0,0,0,NO
32,0,0.0,0,0,0.0,0,0,0.0,0,0,0,0,NO
32,0,0.0,0,0,0.0,0,0,0.0,0,0,0,0,NO
32,0,0.0,0,0,0.0,0,0,0.0,0,0,0,0,NO
35,0,0.0,0,0,0.0,0,0,0.0,0,0,0,0,NO
30,0,0.0,0,0,0.0,0,0,0.0,0,0,0,0,NO
30,0,0.0,0,0,0.0,0,0,0.0,0,0,0,0,NO
49,26,13.0,13,4,2.0,2,22,11.0,11,2,1,1,YES
59,0,0.0,0,0,0.0,0,0,0.0,0,0,0,0,NO
53,0,0.0,0,0,0.0,0,0,0.0,0,0,0,0,NO
57,0,0.0,0,0,0.0,0,0,0.0,0,0,0,0,NO
384,953,30.741935483870968,239,468,15.096774193548388,105,619,19.967741935483872,134,31,6,11,YES
112,102,51.0,51,12,6.0,6,90,45.0,45,2,1,1,YES
71,29,3.2222222222222223,4,11,1.2222222222222223,2,18,2.0,2,9,3,6,YES
136,20,10.0,10,84,42.0,42,64,32.0,32,2,1,1,YES
145,357,39.666666666666664,70,87,9.666666666666666,40,270,30.0,30,9,3,6,YES
43,28,4.0,4,0,0.0,0,28,4.0,4,7,2,5,YES
52,122,40.666666666666664,52,1,0.3333333333333333,1,121,40.333333333333336,52,3,1,2,YES
99,755,94.375,100,62,7.75,62,695,86.875,100,8,2,5,YES
166,1282,142.44444444444446,167,120,13.333333333333334,115,1164,129.33333333333334,167,9,2,5,YES
31,217,31.0,31,0,0.0,0,217,31.0,31,7,2,5,YES
165,1176,147.0,168,21,2.625,21,1161,145.125,168,8,2,5,YES
31,217,31.0,31,0,0.0,0,217,31.0,31,7,2,5,YES
158,1227,136.33333333333334,159,121,13.444444444444445,107,1114,123.77777777777777,159,9,2,5,YES
83,581,83.0,83,0,0.0,0,581,83.0,83,7,2,5,YES
155,1207,134.11111111111111,159,122,13.555555555555555,107,1093,121.44444444444444,159,9,2,5,YES
74,560,56.0,74,42,4.2,38,520,52.0,74,10,2,5,YES
301,774,48.375,127,209,13.0625,24,565,35.3125,107,16,4,8,YES
41,82,41.0,41,0,0.0,0,82,41.0,41,2,1,1,YES
54,102,10.2,20,32,3.2,18,78,7.8,14,10,3,6,YES
66,42,5.25,18,50,6.25,22,8,1.0,4,8,2,4,YES
57,139,17.375,24,55,6.875,24,94,11.75,17,8,2,5,YES
72,0,0.0,0,0,0.0,0,0,0.0,0,0,0,0,NO
64,0,0.0,0,0,0.0,0,0,0.0,0,0,0,0,NO
155,0,0.0,0,0,0.0,0,0,0.0,0,0,0,0,NO
34,0,0.0,0,0,0.0,0,0,0.0,0,0,0,0,NO
38,0,0.0,0,0,0.0,0,0,0.0,0,0,0,0,NO
41,0,0.0,0,0,0.0,0,0,0.0,0,0,0,0,NO
23,0,0.0,0,0,0.0,0,0,0.0,0,0,0,0,NO
22,0,0.0,0,0,0.0,0,0,0.0,0,0,0,0,NO
60,0,0.0,0,0,0.0,0,0,0.0,0,0,0,0,NO
24,0,0.0,0,0,0.0,0,0,0.0,0,0,0,0,NO
22,0,0.0,0,0,0.0,0,0,0.0,0,0,0,0,NO
55,0,0.0,0,0,0.0,0,0,0.0,0,0,0,0,NO
45,0,0.0,0,0,0.0,0,0,0.0,0,0,0,0,NO
50,0,0.0,0,0,0.0,0,0,0.0,0,0,0,0,NO
38,0,0.0,0,0,0.0,0,0,0.0,0,0,0,0,NO
31,0,0.0,0,0,0.0,0,0,0.0,0,0,0,0,NO
30,270,30.0,30,0,0.0,0,270,30.0,30,9,1,6,YES
31,279,31.0,31,0,0.0,0,279,31.0,31,9,1,6,YES
38,342,38.0,38,0,0.0,0,342,38.0,38,9,1,6,YES
31,279,31.0,31,0,0.0,0,279,31.0,31,9,1,6,YES
32,288,32.0,32,0,0.0,0,288,32.0,32,9,1,6,YES
80,177,59.0,80,0,0.0,0,177,59.0,80,3,1,2,YES
82,181,60.333333333333336,82,0,0.0,0,181,60.333333333333336,82,3,1,2,YES
202,565,26.904761904761905,194,18,0.8571428571428571,3,547,26.047619047619047,194,21,5,13,YES
40,97,32.333333333333336,40,0,0.0,0,97,32.333333333333336,40,3,1,2,YES
185,742,41.22222222222222,168,0,0.0,0,742,41.22222222222222,168,18,5,11,YES
51,119,39.666666666666664,51,0,0.0,0,119,39.666666666666664,51,3,1,2,YES
31,0,0.0,0,0,0.0,0,0,0.0,0,0,0,0,NO
28,0,0.0,0,0,0.0,0,0,0.0,0,0,0,0,NO
25,0,0.0,0,0,0.0,0,0,0.0,0,0,0,0,NO
25,0,0.0,0,0,0.0,0,0,0.0,0,0,0,0,NO
33,0,0.0,0,0,0.0,0,0,0.0,0,0,0,0,NO
448,78,13.0,13,0,0.0,0,78,13.0,13,6,1,4,YES
54,0,0.0,0,0,0.0,0,0,0.0,0,0,0,0,NO
39,0,0.0,0,0,0.0,0,0,0.0,0,0,0,0,NO
40,0,0.0,0,0,0.0,0,0,0.0,0,0,0,0,NO
45,0,0.0,0,0,0.0,0,0,0.0,0,0,0,0,NO
58,0,0.0,0,0,0.0,0,0,0.0,0,0,0,0,NO
110,0,0.0,0,0,0.0,0,0,0.0,0,0,0,0,NO
89,0,0.0,0,0,0.0,0,0,0.0,0,0,0,0,NO
57,0,0.0,0,0,0.0,0,0,0.0,0,0,0,0,NO
89,0,0.0,0,0,0.0,0,0,0.0,0,0,0,0,NO
52,0,0.0,0,0,0.0,0,0,0.0,0,0,0,0,NO
219,1314,219.0,219,0,0.0,0,1314,219.0,219,6,1,4,YES
125,750,125.0,125,0,0.0,0,750,125.0,125,6,1,4,YES
346,2076,346.0,346,0,0.0,0,2076,346.0,346,6,1,4,YES
98,588,98.0,98,0,0.0,0,588,98.0,98,6,1,4,YES
343,2088,261.0,343,10,1.25,5,2078,259.75,343,8,1,6,YES
296,1776,296.0,296,0,0.0,0,1776,296.0,296,6,1,4,YES
47,377,41.888888888888886,47,1,0.1111111111111111,1,376,41.77777777777778,47,9,2,5,YES
284,1393,116.08333333333333,207,178,14.833333333333334,21,1215,101.25,186,12,3,7,YES
87,538,67.25,87,8,1.0,4,530,66.25,87,8,2,5,YES
43,258,43.0,43,0,0.0,0,258,43.0,43,6,1,4,YES
47,0,0.0,0,0,0.0,0,0,0.0,0,0,0,0,NO
55,330,55.0,55,0,0.0,0,330,55.0,55,6,1,4,YES
41,250,31.25,41,2,0.25,1,248,31.0,41,8,2,5,YES
42,390,39.0,54,12,1.2,12,402,40.2,54,10,2,6,YES
50,300,50.0,50,0,0.0,0,300,50.0,50,6,1,4,YES
41,246,41.0,41,0,0.0,0,246,41.0,41,6,1,4,YES
59,54,9.0,9,30,5.0,5,24,4.0,4,6,1,4,YES
45,270,45.0,45,0,0.0,0,270,45.0,45,6,1,4,YES
116,54,9.0,9,6,1.0,1,48,8.0,8,6,1,4,YES
172,178,17.8,29,110,11.0,17,76,7.6,12,10,2,5,YES
94,846,94.0,94,0,0.0,0,846,94.0,94,9,2,6,YES
159,288,48.0,48,78,13.0,13,210,35.0,35,6,1,4,YES
56,336,56.0,56,0,0.0,0,336,56.0,56,6,1,4,YES
77,472,59.0,77,10,1.25,5,462,57.75,77,8,1,5,YES
114,360,60.0,60,150,25.0,25,210,35.0,35,6,1,4,YES
77,462,77.0,77,0,0.0,0,462,77.0,77,6,1,4,YES
80,60,10.0,10,54,9.0,9,6,1.0,1,6,1,4,YES
46,276,46.0,46,0,0.0,0,276,46.0,46,6,1,4,YES
157,942,157.0,157,0,0.0,0,942,157.0,157,6,1,4,YES
57,12,2.0,2,12,2.0,2,0,0.0,0,6,1,4,YES
57,18,3.0,3,18,3.0,3,0,0.0,0,6,1,4,YES
131,876,67.38461538461539,131,41,3.1538461538461537,8,839,64.53846153846153,131,13,2,6,YES
70,420,70.0,70,0,0.0,0,420,70.0,70,6,1,4,YES
110,0,0.0,0,0,0.0,0,0,0.0,0,0,0,0,NO
70,6,1.0,1,0,0.0,0,6,1.0,1,6,1,4,YES
114,0,0.0,0,0,0.0,0,0,0.0,0,0,0,0,NO
261,2096,262.0,262,0,0.0,0,2096,262.0,262,8,2,5,YES
281,1742,158.36363636363637,281,14,1.2727272727272727,4,1728,157.0909090909091,281,11,2,6,YES
108,648,108.0,108,0,0.0,0,648,108.0,108,6,1,4,YES
44,264,44.0,44,0,0.0,0,264,44.0,44,6,1,4,YES
104,624,104.0,104,0,0.0,0,624,104.0,104,6,1,4,YES
206,1236,206.0,206,0,0.0,0,1236,206.0,206,6,1,4,YES
86,516,86.0,86,0,0.0,0,516,86.0,86,6,1,4,YES
89,0,0.0,0,0,0.0,0,0,0.0,0,0,0,0,NO
64,0,0.0,0,0,0.0,0,0,0.0,0,0,0,0,NO
61,356,39.55555555555556,61,4,0.4444444444444444,3,358,39.77777777777778,61,9,1,4,NO
64,412,34.333333333333336,64,41,3.4166666666666665,14,429,35.75,64,12,1,4,NO
68,394,43.77777777777778,68,2,0.2222222222222222,1,394,43.77777777777778,68,9,1,4,NO
23,0,0.0,0,0,0.0,0,0,0.0,0,0,0,0,NO
40,0,0.0,0,0,0.0,0,0,0.0,0,0,0,0,NO
25,0,0.0,0,0,0.0,0,0,0.0,0,0,0,0,NO
26,0,0.0,0,0,0.0,0,0,0.0,0,0,0,0,NO
59,0,0.0,0,0,0.0,0,0,0.0,0,0,0,0,NO
60,0,0.0,0,0,0.0,0,0,0.0,0,0,0,0,NO
51,0,0.0,0,0,0.0,0,0,0.0,0,0,0,0,NO
58,0,0.0,0,0,0.0,0,0,0.0,0,0,0,0,NO
61,0,0.0,0,0,0.0,0,0,0.0,0,0,0,0,NO
35,195,24.375,35,1,0.125,1,196,24.5,35,8,1,4,NO
224,0,0.0,0,0,0.0,0,0,0.0,0,0,0,0,NO
32,0,0.0,0,0,0.0,0,0,0.0,0,0,0,0,NO
32,0,0.0,0,0,0.0,0,0,0.0,0,0,0,0,NO
32,0,0.0,0,0,0.0,0,0,0.0,0,0,0,0,NO
32,0,0.0,0,0,0.0,0,0,0.0,0,0,0,0,NO
23,0,0.0,0,0,0.0,0,0,0.0,0,0,0,0,NO
24,0,0.0,0,0,0.0,0,0,0.0,0,0,0,0,NO
105,9,1.0,1,9,1.0,1,0,0.0,0,9,3,8,YES
29,0,0.0,0,0,0.0,0,0,0.0,0,0,0,0,NO
34,0,0.0,0,0,0.0,0,0,0.0,0,0,0,0,NO
28,0,0.0,0,0,0.0,0,0,0.0,0,0,0,0,NO
31,0,0.0,0,0,0.0,0,0,0.0,0,0,0,0,NO
38,0,0.0,0,0,0.0,0,0,0.0,0,0,0,0,NO
32,0,0.0,0,0,0.0,0,0,0.0,0,0,0,0,NO
28,0,0.0,0,0,0.0,0,0,0.0,0,0,0,0,NO
41,0,0.0,0,0,0.0,0,0,0.0,0,0,0,0,NO
260,1216,38.0,106,201,6.28125,49,1015,31.71875,64,32,7,15,YES
41,0,0.0,0,0,0.0,0,0,0.0,0,0,0,0,NO
134,0,0.0,0,0,0.0,0,0,0.0,0,0,0,0,NO
29,0,0.0,0,0,0.0,0,0,0.0,0,0,0,0,NO
22,0,0.0,0,0,0.0,0,0,0.0,0,0,0,0,NO
25,0,0.0,0,0,0.0,0,0,0.0,0,0,0,0,NO
24,0,0.0,0,0,0.0,0,0,0.0,0,0,0,0,NO
28,0,0.0,0,0,0.0,0,0,0.0,0,0,0,0,NO
30,0,0.0,0,0,0.0,0,0,0.0,0,0,0,0,NO
198,0,0.0,0,0,0.0,0,0,0.0,0,0,0,0,NO
84,0,0.0,0,0,0.0,0,0,0.0,0,0,0,0,YES
22,0,0.0,0,0,0.0,0,0,0.0,0,0,0,0,NO
31,0,0.0,0,0,0.0,0,0,0.0,0,0,0,0,NO
32,0,0.0,0,0,0.0,0,0,0.0,0,0,0,0,NO
225,0,0.0,0,0,0.0,0,0,0.0,0,0,0,0,NO
383,1970,45.81395348837209,144,825,19.186046511627907,115,1163,27.046511627906977,75,43,8,16,YES
314,305,21.785714285714285,49,2,0.14285714285714285,1,303,21.642857142857142,48,14,3,9,YES
106,0,0.0,0,0,0.0,0,0,0.0,0,0,0,0,NO
25,0,0.0,0,0,0.0,0,0,0.0,0,0,0,0,NO
52,0,0.0,0,0,0.0,0,0,0.0,0,0,0,0,NO
52,0,0.0,0,0,0.0,0,0,0.0,0,0,0,0,NO
72,0,0.0,0,0,0.0,0,0,0.0,0,0,0,0,NO
39,0,0.0,0,0,0.0,0,0,0.0,0,0,0,0,NO
48,0,0.0,0,0,0.0,0,0,0.0,0,0,0,0,NO
42,0,0.0,0,0,0.0,0,0,0.0,0,0,0,0,NO
67,21,21.0,21,1,1.0,1,20,20.0,20,1,0,1,NO
55,0,0.0,0,0,0.0,0,0,0.0,0,0,0,0,NO
57,0,0.0,0,0,0.0,0,0,0.0,0,0,0,0,NO
100,0,0.0,0,0,0.0,0,0,0.0,0,0,0,0,NO
42,0,0.0,0,0,0.0,0,0,0.0,0,0,0,0,NO
179,0,0.0,0,0,0.0,0,0,0.0,0,0,0,0,NO
95,570,95.0,95,0,0.0,0,570,95.0,95,6,1,3,YES
42,0,0.0,0,0,0.0,0,0,0.0,0,0,0,0,NO
61,0,0.0,0,0,0.0,0,0,0.0,0,0,0,0,NO
24,0,0.0,0,0,0.0,0,0,0.0,0,0,0,0,NO
61,0,0.0,0,0,0.0,0,0,0.0,0,0,0,0,NO
181,0,0.0,0,0,0.0,0,0,0.0,0,0,0,0,NO
38,0,0.0,0,0,0.0,0,0,0.0,0,0,0,0,NO
57,0,0.0,0,0,0.0,0,0,0.0,0,0,0,0,NO
51,0,0.0,0,0,0.0,0,0,0.0,0,0,0,0,NO
60,0,0.0,0,0,0.0,0,0,0.0,0,0,0,0,NO
50,0,0.0,0,0,0.0,0,0,0.0,0,0,0,0,NO
51,0,0.0,0,0,0.0,0,0,0.0,0,0,0,0,NO
186,0,0.0,0,0,0.0,0,0,0.0,0,0,0,0,NO
52,0,0.0,0,0,0.0,0,0,0.0,0,0,0,0,NO
32,305,30.5,32,0,0.0,0,305,30.5,32,10,1,7,YES
35,332,33.2,35,0,0.0,0,332,33.2,35,10,1,7,YES
37,222,37.0,37,0,0.0,0,222,37.0,37,6,1,4,YES
105,0,0.0,0,0,0.0,0,0,0.0,0,0,0,0,NO
63,0,0.0,0,0,0.0,0,0,0.0,0,0,0,0,NO
62,0,0.0,0,0,0.0,0,0,0.0,0,0,0,0,NO
139,278,139.0,139,0,0.0,0,278,139.0,139,2,1,1,YES
76,152,76.0,76,0,0.0,0,152,76.0,76,2,1,1,YES
60,0,0.0,0,0,0.0,0,0,0.0,0,0,0,0,NO
41,0,0.0,0,0,0.0,0,0,0.0,0,0,0,0,NO
31,0,0.0,0,0,0.0,0,0,0.0,0,0,0,0,NO
45,0,0.0,0,0,0.0,0,0,0.0,0,0,0,0,NO
85,0,0.0,0,0,0.0,0,0,0.0,0,0,0,0,NO
37,0,0.0,0,0,0.0,0,0,0.0,0,0,0,0,NO
61,0,0.0,0,0,0.0,0,0,0.0,0,0,0,0,NO
86,0,0.0,0,0,0.0,0,0,0.0,0,0,0,0,NO
34,0,0.0,0,0,0.0,0,0,0.0,0,0,0,0,NO
83,0,0.0,0,0,0.0,0,0,0.0,0,0,0,0,NO
54,0,0.0,0,0,0.0,0,0,0.0,0,0,0,0,NO
67,0,0.0,0,0,0.0,0,0,0.0,0,0,0,0,NO
62,0,0.0,0,0,0.0,0,0,0.0,0,0,0,0,NO
22,0,0.0,0,0,0.0,0,0,0.0,0,0,0,0,NO
29,0,0.0,0,0,0.0,0,0,0.0,0,0,0,0,NO
36,0,0.0,0,0,0.0,0,0,0.0,0,0,0,0,NO
33,0,0.0,0,0,0.0,0,0,0.0,0,0,0,0,NO
26,0,0.0,0,0,0.0,0,0,0.0,0,0,0,0,NO
44,0,0.0,0,0,0.0,0,0,0.0,0,0,0,0,NO
29,0,0.0,0,0,0.0,0,0,0.0,0,0,0,0,NO
29,0,0.0,0,0,0.0,0,0,0.0,0,0,0,0,NO
25,0,0.0,0,0,0.0,0,0,0.0,0,0,0,0,NO
53,0,0.0,0,0,0.0,0,0,0.0,0,0,0,0,NO
32,0,0.0,0,0,0.0,0,0,0.0,0,0,0,0,NO
53,0,0.0,0,0,0.0,0,0,0.0,0,0,0,0,NO
36,0,0.0,0,0,0.0,0,0,0.0,0,0,0,0,NO
22,0,0.0,0,0,0.0,0,0,0.0,0,0,0,0,NO
359,0,0.0,0,0,0.0,0,0,0.0,0,0,0,0,YES
33,0,0.0,0,0,0.0,0,0,0.0,0,0,0,0,NO
25,0,0.0,0,0,0.0,0,0,0.0,0,0,0,0,NO
28,0,0.0,0,0,0.0,0,0,0.0,0,0,0,0,NO
25,0,0.0,0,0,0.0,0,0,0.0,0,0,0,0,NO
25,0,0.0,0,0,0.0,0,0,0.0,0,0,0,0,NO
26,0,0.0,0,0,0.0,0,0,0.0,0,0,0,0,NO
50,0,0.0,0,0,0.0,0,0,0.0,0,0,0,0,NO
24,0,0.0,0,0,0.0,0,0,0.0,0,0,0,0,NO
25,0,0.0,0,0,0.0,0,0,0.0,0,0,0,0,NO
26,0,0.0,0,0,0.0,0,0,0.0,0,0,0,0,NO
31,0,0.0,0,0,0.0,0,0,0.0,0,0,0,0,NO
94,0,0.0,0,0,0.0,0,0,0.0,0,0,0,0,NO
61,0,0.0,0,0,0.0,0,0,0.0,0,0,0,0,NO
96,0,0.0,0,0,0.0,0,0,0.0,0,0,0,0,NO
217,0,0.0,0,0,0.0,0,0,0.0,0,0,0,0,NO
510,0,0.0,0,0,0.0,0,0,0.0,0,0,0,0,NO
56,0,0.0,0,0,0.0,0,0,0.0,0,0,0,0,NO
69,0,0.0,0,0,0.0,0,0,0.0,0,0,0,0,NO
159,0,0.0,0,0,0.0,0,0,0.0,0,0,0,0,NO
142,0,0.0,0,0,0.0,0,0,0.0,0,0,0,0,NO
149,0,0.0,0,0,0.0,0,0,0.0,0,0,0,0,NO
47,282,47.0,47,0,0.0,0,282,47.0,47,6,1,4,YES
173,272,34.0,45,68,8.5,11,204,25.5,34,8,2,5,YES
100,0,0.0,0,0,0.0,0,0,0.0,0,0,0,0,NO
136,816,136.0,136,0,0.0,0,816,136.0,136,6,0,6,NO
98,0,0.0,0,0,0.0,0,0,0.0,0,0,0,0,NO
60,13,1.8571428571428572,7,674,96.28571428571429,112,671,95.85714285714286,111,7,0,7,NO
351,7,7.0,7,1,1.0,1,6,6.0,6,1,0,1,NO
37,0,0.0,0,0,0.0,0,0,0.0,0,0,0,0,NO
20,157,19.625,20,0,0.0,0,157,19.625,20,8,1,6,YES
54,0,0.0,0,0,0.0,0,0,0.0,0,0,0,0,NO
44,0,0.0,0,0,0.0,0,0,0.0,0,0,0,0,NO
35,0,0.0,0,0,0.0,0,0,0.0,0,0,0,0,NO
24,0,0.0,0,0,0.0,0,0,0.0,0,0,0,0,NO
65,132,22.0,22,246,41.0,41,114,19.0,19,6,1,4,YES
217,508,33.86666666666667,78,406,27.066666666666666,45,122,8.133333333333333,33,15,3,7,YES
177,0,0.0,0,0,0.0,0,0,0.0,0,0,0,0,NO
59,0,0.0,0,0,0.0,0,0,0.0,0,0,0,0,NO
68,0,0.0,0,0,0.0,0,0,0.0,0,0,0,0,NO
156,0,0.0,0,0,0.0,0,0,0.0,0,0,0,0,NO
114,267,24.272727272727273,34,92,8.363636363636363,17,175,15.909090909090908,24,11,3,7,YES
249,2801,215.46153846153845,249,62,4.769230769230769,40,2739,210.69230769230768,249,13,1,7,YES
43,0,0.0,0,0,0.0,0,0,0.0,0,0,0,0,NO
43,0,0.0,0,0,0.0,0,0,0.0,0,0,0,0,NO
38,0,0.0,0,0,0.0,0,0,0.0,0,0,0,0,NO
59,68,9.714285714285714,20,23,3.2857142857142856,5,45,6.428571428571429,15,7,1,5,YES
64,0,0.0,0,0,0.0,0,0,0.0,0,0,0,0,NO
124,0,0.0,0,0,0.0,0,0,0.0,0,0,0,0,NO
47,0,0.0,0,0,0.0,0,0,0.0,0,0,0,0,NO
182,540,36.0,116,201,13.4,83,339,22.6,38,15,3,10,YES
498,4482,498.0,498,0,0.0,0,4482,498.0,498,9,2,6,YES
74,445,63.57142857142857,74,1,0.14285714285714285,1,444,63.42857142857143,74,7,1,6,YES
34,204,34.0,34,0,0.0,0,204,34.0,34,6,1,4,YES
58,0,0.0,0,0,0.0,0,0,0.0,0,0,0,0,NO
109,24,12.0,12,12,6.0,6,12,6.0,6,2,1,1,YES
161,0,0.0,0,0,0.0,0,0,0.0,0,0,0,0,NO
113,226,113.0,113,0,0.0,0,226,113.0,113,2,1,1,YES
536,1204,40.13333333333333,111,640,21.333333333333332,50,862,28.733333333333334,90,30,5,13,YES
186,0,0.0,0,0,0.0,0,0,0.0,0,0,0,0,YES
51,0,0.0,0,0,0.0,0,0,0.0,0,0,0,0,NO
375,0,0.0,0,0,0.0,0,0,0.0,0,0,0,0,NO
53,42,7.0,7,12,2.0,2,30,5.0,5,6,1,4,YES
84,504,84.0,84,0,0.0,0,504,84.0,84,6,1,4,YES
30,0,0.0,0,0,0.0,0,0,0.0,0,0,0,0,NO
377,8,4.0,4,2,1.0,1,6,3.0,3,2,1,1,YES
40,0,0.0,0,0,0.0,0,0,0.0,0,0,0,0,NO
813,0,0.0,0,0,0.0,0,0,0.0,0,0,0,0,NO
121,66,11.0,11,12,2.0,2,54,9.0,9,6,1,4,YES
183,0,0.0,0,0,0.0,0,0,0.0,0,0,0,0,NO
32,0,0.0,0,0,0.0,0,0,0.0,0,0,0,0,NO
32,0,0.0,0,0,0.0,0,0,0.0,0,0,0,0,NO
26,0,0.0,0,0,0.0,0,0,0.0,0,0,0,0,NO
174,0,0.0,0,0,0.0,0,0,0.0,0,0,0,0,NO
31,0,0.0,0,0,0.0,0,0,0.0,0,0,0,0,NO
24,0,0.0,0,0,0.0,0,0,0.0,0,0,0,0,NO
34,0,0.0,0,0,0.0,0,0,0.0,0,0,0,0,NO
123,0,0.0,0,0,0.0,0,0,0.0,0,0,0,0,NO
87,0,0.0,0,0,0.0,0,0,0.0,0,0,0,0,NO
26,0,0.0,0,0,0.0,0,0,0.0,0,0,0,0,NO
25,0,0.0,0,0,0.0,0,0,0.0,0,0,0,0,NO
23,0,0.0,0,0,0.0,0,0,0.0,0,0,0,0,NO
23,0,0.0,0,0,0.0,0,0,0.0,0,0,0,0,NO
23,0,0.0,0,0,0.0,0,0,0.0,0,0,0,0,NO
33,0,0.0,0,0,0.0,0,0,0.0,0,0,0,0,NO
32,0,0.0,0,0,0.0,0,0,0.0,0,0,0,0,NO
29,0,0.0,0,0,0.0,0,0,0.0,0,0,0,0,NO
22,0,0.0,0,0,0.0,0,0,0.0,0,0,0,0,NO
25,0,0.0,0,0,0.0,0,0,0.0,0,0,0,0,NO
24,0,0.0,0,0,0.0,0,0,0.0,0,0,0,0,NO
31,0,0.0,0,0,0.0,0,0,0.0,0,0,0,0,NO
31,0,0.0,0,0,0.0,0,0,0.0,0,0,0,0,NO
26,0,0.0,0,0,0.0,0,0,0.0,0,0,0,0,NO
26,0,0.0,0,0,0.0,0,0,0.0,0,0,0,0,NO
26,0,0.0,0,0,0.0,0,0,0.0,0,0,0,0,NO
36,0,0.0,0,0,0.0,0,0,0.0,0,0,0,0,NO
65,0,0.0,0,0,0.0,0,0,0.0,0,0,0,0,NO
41,0,0.0,0,0,0.0,0,0,0.0,0,0,0,0,NO
39,0,0.0,0,0,0.0,0,0,0.0,0,0,0,0,NO
38,0,0.0,0,0,0.0,0,0,0.0,0,0,0,0,NO
31,0,0.0,0,0,0.0,0,0,0.0,0,0,0,0,NO
125,0,0.0,0,0,0.0,0,0,0.0,0,0,0,0,NO
38,0,0.0,0,0,0.0,0,0,0.0,0,0,0,0,NO
48,0,0.0,0,0,0.0,0,0,0.0,0,0,0,0,NO
44,0,0.0,0,0,0.0,0,0,0.0,0,0,0,0,NO
42,0,0.0,0,0,0.0,0,0,0.0,0,0,0,0,NO
46,0,0.0,0,0,0.0,0,0,0.0,0,0,0,0,NO
42,0,0.0,0,0,0.0,0,0,0.0,0,0,0,0,NO
113,0,0.0,0,0,0.0,0,0,0.0,0,0,0,0,NO
53,0,0.0,0,0,0.0,0,0,0.0,0,0,0,0,NO
56,0,0.0,0,0,0.0,0,0,0.0,0,0,0,0,NO
61,0,0.0,0,0,0.0,0,0,0.0,0,0,0,0,NO
49,0,0.0,0,0,0.0,0,0,0.0,0,0,0,0,NO
53,0,0.0,0,0,0.0,0,0,0.0,0,0,0,0,NO
29,0,0.0,0,0,0.0,0,0,0.0,0,0,0,0,NO
48,0,0.0,0,0,0.0,0,0,0.0,0,0,0,0,NO
96,0,0.0,0,0,0.0,0,0,0.0,0,0,0,0,NO
95,0,0.0,0,0,0.0,0,0,0.0,0,0,0,0,NO
51,0,0.0,0,0,0.0,0,0,0.0,0,0,0,0,NO
29,0,0.0,0,0,0.0,0,0,0.0,0,0,0,0,NO
159,0,0.0,0,0,0.0,0,0,0.0,0,0,0,0,NO
53,0,0.0,0,0,0.0,0,0,0.0,0,0,0,0,NO
56,0,0.0,0,0,0.0,0,0,0.0,0,0,0,0,NO
27,0,0.0,0,0,0.0,0,0,0.0,0,0,0,0,NO
95,0,0.0,0,0,0.0,0,0,0.0,0,0,0,0,NO
40,0,0.0,0,0,0.0,0,0,0.0,0,0,0,0,NO
45,0,0.0,0,0,0.0,0,0,0.0,0,0,0,0,NO
61,0,0.0,0,0,0.0,0,0,0.0,0,0,0,0,NO
53,0,0.0,0,0,0.0,0,0,0.0,0,0,0,0,NO
38,0,0.0,0,0,0.0,0,0,0.0,0,0,0,0,NO
64,0,0.0,0,0,0.0,0,0,0.0,0,0,0,0,NO
31,0,0.0,0,0,0.0,0,0,0.0,0,0,0,0,NO
52,0,0.0,0,0,0.0,0,0,0.0,0,0,0,0,NO
29,0,0.0,0,0,0.0,0,0,0.0,0,0,0,0,NO
33,0,0.0,0,0,0.0,0,0,0.0,0,0,0,0,NO
39,0,0.0,0,0,0.0,0,0,0.0,0,0,0,0,NO
218,0,0.0,0,0,0.0,0,0,0.0,0,0,0,0,NO
40,0,0.0,0,0,0.0,0,0,0.0,0,0,0,0,NO
27,0,0.0,0,0,0.0,0,0,0.0,0,0,0,0,NO
84,0,0.0,0,0,0.0,0,0,0.0,0,0,0,0,NO
62,0,0.0,0,0,0.0,0,0,0.0,0,0,0,0,NO
80,0,0.0,0,0,0.0,0,0,0.0,0,0,0,0,NO
59,0,0.0,0,0,0.0,0,0,0.0,0,0,0,0,NO
93,0,0.0,0,0,0.0,0,0,0.0,0,0,0,0,NO
107,0,0.0,0,0,0.0,0,0,0.0,0,0,0,0,NO
73,0,0.0,0,0,0.0,0,0,0.0,0,0,0,0,NO
106,0,0.0,0,0,0.0,0,0,0.0,0,0,0,0,NO
76,0,0.0,0,0,0.0,0,0,0.0,0,0,0,0,NO
92,0,0.0,0,0,0.0,0,0,0.0,0,0,0,0,NO
24,0,0.0,0,0,0.0,0,0,0.0,0,0,0,0,NO
33,0,0.0,0,0,0.0,0,0,0.0,0,0,0,0,NO
31,0,0.0,0,0,0.0,0,0,0.0,0,0,0,0,NO
62,0,0.0,0,0,0.0,0,0,0.0,0,0,0,0,NO
77,0,0.0,0,0,0.0,0,0,0.0,0,0,0,0,NO
25,0,0.0,0,0,0.0,0,0,0.0,0,0,0,0,NO
94,0,0.0,0,0,0.0,0,0,0.0,0,0,0,0,YES
201,0,0.0,0,0,0.0,0,0,0.0,0,0,0,0,NO
171,0,0.0,0,0,0.0,0,0,0.0,0,0,0,0,NO
198,0,0.0,0,0,0.0,0,0,0.0,0,0,0,0,YES
49,0,0.0,0,0,0.0,0,0,0.0,0,0,0,0,NO
38,0,0.0,0,0,0.0,0,0,0.0,0,0,0,0,NO
178,2,1.0,1,0,0.0,0,2,1.0,1,2,1,1,YES
94,0,0.0,0,0,0.0,0,0,0.0,0,0,0,0,NO
138,0,0.0,0,0,0.0,0,0,0.0,0,0,0,0,NO
25,0,0.0,0,0,0.0,0,0,0.0,0,0,0,0,NO
25,0,0.0,0,0,0.0,0,0,0.0,0,0,0,0,NO
36,0,0.0,0,0,0.0,0,0,0.0,0,0,0,0,NO
26,0,0.0,0,0,0.0,0,0,0.0,0,0,0,0,NO
44,0,0.0,0,0,0.0,0,0,0.0,0,0,0,0,NO
52,0,0.0,0,0,0.0,0,0,0.0,0,0,0,0,NO
50,0,0.0,0,0,0.0,0,0,0.0,0,0,0,0,NO
75,0,0.0,0,0,0.0,0,0,0.0,0,0,0,0,NO
28,0,0.0,0,0,0.0,0,0,0.0,0,0,0,0,NO
31,0,0.0,0,0,0.0,0,0,0.0,0,0,0,0,NO
41,0,0.0,0,0,0.0,0,0,0.0,0,0,0,0,NO
26,0,0.0,0,0,0.0,0,0,0.0,0,0,0,0,NO
39,0,0.0,0,0,0.0,0,0,0.0,0,0,0,0,NO
26,0,0.0,0,0,0.0,0,0,0.0,0,0,0,0,NO
30,0,0.0,0,0,0.0,0,0,0.0,0,0,0,0,NO
25,0,0.0,0,0,0.0,0,0,0.0,0,0,0,0,NO
33,0,0.0,0,0,0.0,0,0,0.0,0,0,0,0,NO
44,0,0.0,0,0,0.0,0,0,0.0,0,0,0,0,NO
23,0,0.0,0,0,0.0,0,0,0.0,0,0,0,0,NO
80,0,0.0,0,0,0.0,0,0,0.0,0,0,0,0,NO
79,0,0.0,0,0,0.0,0,0,0.0,0,0,0,0,NO
26,0,0.0,0,0,0.0,0,0,0.0,0,0,0,0,NO
83,0,0.0,0,0,0.0,0,0,0.0,0,0,0,0,NO
92,0,0.0,0,0,0.0,0,0,0.0,0,0,0,0,NO
26,0,0.0,0,0,0.0,0,0,0.0,0,0,0,0,NO
85,0,0.0,0,0,0.0,0,0,0.0,0,0,0,0,NO
67,0,0.0,0,0,0.0,0,0,0.0,0,0,0,0,NO
124,10,5.0,5,2,1.0,1,8,4.0,4,2,1,1,YES
26,0,0.0,0,0,0.0,0,0,0.0,0,0,0,0,NO
25,67,22.333333333333332,25,0,0.0,0,67,22.333333333333332,25,3,1,2,YES
76,0,0.0,0,0,0.0,0,0,0.0,0,0,0,0,NO
109,0,0.0,0,0,0.0,0,0,0.0,0,0,0,0,NO
24,0,0.0,0,0,0.0,0,0,0.0,0,0,0,0,NO
27,0,0.0,0,0,0.0,0,0,0.0,0,0,0,0,NO
47,0,0.0,0,0,0.0,0,0,0.0,0,0,0,0,NO
185,0,0.0,0,0,0.0,0,0,0.0,0,0,0,0,NO
96,0,0.0,0,0,0.0,0,0,0.0,0,0,0,0,NO
97,0,0.0,0,0,0.0,0,0,0.0,0,0,0,0,NO
23,0,0.0,0,0,0.0,0,0,0.0,0,0,0,0,NO
154,0,0.0,0,0,0.0,0,0,0.0,0,0,0,0,NO
47,0,0.0,0,0,0.0,0,0,0.0,0,0,0,0,NO
176,52,26.0,26,2,1.0,1,50,25.0,25,2,1,1,YES
36,0,0.0,0,0,0.0,0,0,0.0,0,0,0,0,NO
32,0,0.0,0,0,0.0,0,0,0.0,0,0,0,0,NO
30,0,0.0,0,0,0.0,0,0,0.0,0,0,0,0,NO
37,0,0.0,0,0,0.0,0,0,0.0,0,0,0,0,NO
33,0,0.0,0,0,0.0,0,0,0.0,0,0,0,0,NO
32,0,0.0,0,0,0.0,0,0,0.0,0,0,0,0,NO
289,12,4.0,4,0,0.0,0,12,4.0,4,3,1,2,YES
66,0,0.0,0,0,0.0,0,0,0.0,0,0,0,0,NO
425,1,1.0,1,1,1.0,1,0,0.0,0,1,0,1,NO
722,0,0.0,0,0,0.0,0,0,0.0,0,0,0,0,NO
147,0,0.0,0,0,0.0,0,0,0.0,0,0,0,0,NO
47,282,47.0,47,0,0.0,0,282,47.0,47,6,1,4,YES
171,284,35.5,47,68,8.5,11,216,27.0,36,8,2,5,YES
92,0,0.0,0,0,0.0,0,0,0.0,0,0,0,0,NO
44,0,0.0,0,0,0.0,0,0,0.0,0,0,0,0,NO
34,24,4.0,4,252,42.0,42,228,38.0,38,6,0,6,NO
359,198,33.0,33,12,2.0,2,186,31.0,31,6,0,6,NO
60,0,0.0,0,6,1.0,1,6,1.0,1,6,0,6,NO
28,0,0.0,0,0,0.0,0,0,0.0,0,0,0,0,NO
50,0,0.0,0,0,0.0,0,0,0.0,0,0,0,0,NO
35,0,0.0,0,0,0.0,0,0,0.0,0,0,0,0,NO
142,24,12.0,12,4,2.0,2,20,10.0,10,2,1,1,YES
82,473,67.57142857142857,82,4,0.5714285714285714,4,469,67.0,82,7,1,4,NO
153,596,42.57142857142857,153,136,9.714285714285714,13,468,33.42857142857143,153,14,3,7,YES
100,606,86.57142857142857,101,0,0.0,0,606,86.57142857142857,101,7,1,6,YES
233,248,82.66666666666667,206,15,5.0,14,233,77.66666666666667,206,3,0,1,NO
557,780,86.66666666666667,510,222,24.666666666666668,162,770,85.55555555555556,510,9,0,1,NO
22,22,22.0,22,0,0.0,0,22,22.0,22,1,0,1,NO
39,39,39.0,39,0,0.0,0,39,39.0,39,1,0,1,NO
39,39,39.0,39,0,0.0,0,39,39.0,39,1,0,1,NO
24,24,24.0,24,0,0.0,0,24,24.0,24,1,0,1,NO
45,45,45.0,45,0,0.0,0,45,45.0,45,1,0,1,NO
77,77,77.0,77,0,0.0,0,77,77.0,77,1,0,1,NO
77,77,77.0,77,0,0.0,0,77,77.0,77,1,0,1,NO
54,54,54.0,54,0,0.0,0,54,54.0,54,1,0,1,NO
90,90,45.0,79,0,0.0,0,90,45.0,79,2,0,1,NO
58,58,58.0,58,0,0.0,0,58,58.0,58,1,0,1,NO
24,24,24.0,24,0,0.0,0,24,24.0,24,1,0,1,NO
64,64,64.0,64,0,0.0,0,64,64.0,64,1,0,1,NO
214,223,55.75,182,9,2.25,4,214,53.5,182,4,0,1,NO
19,19,19.0,19,0,0.0,0,19,19.0,19,1,0,1,NO
35,35,35.0,35,0,0.0,0,35,35.0,35,1,0,1,NO
157,157,157.0,157,0,0.0,0,157,157.0,157,1,0,1,NO
55,55,55.0,55,0,0.0,0,55,55.0,55,1,0,1,NO
26,26,26.0,26,0,0.0,0,26,26.0,26,1,0,1,NO
54,54,54.0,54,0,0.0,0,54,54.0,54,1,0,1,NO
79,2,2.0,2,1,1.0,1,1,1.0,1,1,0,1,NO
87,0,0.0,0,0,0.0,0,0,0.0,0,0,0,0,NO
68,0,0.0,0,0,0.0,0,0,0.0,0,0,0,0,NO
58,0,0.0,0,0,0.0,0,0,0.0,0,0,0,0,NO
196,0,0.0,0,0,0.0,0,0,0.0,0,0,0,0,NO
132,0,0.0,0,0,0.0,0,0,0.0,0,0,0,0,NO
64,0,0.0,0,0,0.0,0,0,0.0,0,0,0,0,NO
134,134,134.0,134,0,0.0,0,134,134.0,134,1,0,1,NO
173,0,0.0,0,0,0.0,0,0,0.0,0,0,0,0,NO
246,0,0.0,0,0,0.0,0,0,0.0,0,0,0,0,NO
107,0,0.0,0,0,0.0,0,0,0.0,0,0,0,0,NO
121,0,0.0,0,0,0.0,0,0,0.0,0,0,0,0,NO
110,15,1.875,2,15,1.875,2,2,0.25,1,8,1,6,YES
58,0,0.0,0,0,0.0,0,0,0.0,0,0,0,0,NO
37,0,0.0,0,0,0.0,0,0,0.0,0,0,0,0,NO
77,77,11.0,77,9,1.2857142857142858,4,86,12.285714285714286,77,7,1,6,YES
142,15,1.875,2,15,1.875,2,2,0.25,1,8,1,6,YES
114,0,0.0,0,0,0.0,0,0,0.0,0,0,0,0,NO
59,0,0.0,0,0,0.0,0,0,0.0,0,0,0,0,NO
64,0,0.0,0,0,0.0,0,0,0.0,0,0,0,0,NO
164,0,0.0,0,0,0.0,0,0,0.0,0,0,0,0,NO
70,0,0.0,0,0,0.0,0,0,0.0,0,0,0,0,NO
32,0,0.0,0,0,0.0,0,0,0.0,0,0,0,0,NO
148,0,0.0,0,0,0.0,0,0,0.0,0,0,0,0,NO
156,0,0.0,0,0,0.0,0,0,0.0,0,0,0,0,NO
119,0,0.0,0,0,0.0,0,0,0.0,0,0,0,0,NO
118,0,0.0,0,0,0.0,0,0,0.0,0,0,0,0,NO
156,0,0.0,0,0,0.0,0,0,0.0,0,0,0,0,NO
85,0,0.0,0,0,0.0,0,0,0.0,0,0,0,0,NO
48,0,0.0,0,0,0.0,0,0,0.0,0,0,0,0,YES
146,0,0.0,0,0,0.0,0,0,0.0,0,0,0,0,NO
113,0,0.0,0,0,0.0,0,0,0.0,0,0,0,0,NO
147,0,0.0,0,0,0.0,0,0,0.0,0,0,0,0,NO
40,14,2.8,11,14,2.8,6,20,4.0,10,5,0,1,NO
125,0,0.0,0,0,0.0,0,0,0.0,0,0,0,0,NO
252,0,0.0,0,0,0.0,0,0,0.0,0,0,0,0,NO
368,0,0.0,0,0,0.0,0,0,0.0,0,0,0,0,NO
106,0,0.0,0,0,0.0,0,0,0.0,0,0,0,0,NO
181,0,0.0,0,0,0.0,0,0,0.0,0,0,0,0,NO
263,789,263.0,263,0,0.0,0,789,263.0,263,3,0,1,NO
590,1773,591.0,591,0,0.0,0,1773,591.0,591,3,0,1,YES
39,117,39.0,39,0,0.0,0,117,39.0,39,3,0,1,NO
39,117,39.0,39,0,0.0,0,117,39.0,39,3,0,1,NO
39,117,39.0,39,0,0.0,0,117,39.0,39,3,0,1,NO
24,72,24.0,24,0,0.0,0,72,24.0,24,3,0,1,NO
62,186,62.0,62,0,0.0,0,186,62.0,62,3,0,1,NO
77,231,77.0,77,0,0.0,0,231,77.0,77,3,0,1,NO
77,231,77.0,77,0,0.0,0,231,77.0,77,3,0,1,NO
54,162,54.0,54,0,0.0,0,162,54.0,54,3,0,1,NO
90,270,90.0,90,0,0.0,0,270,90.0,90,3,0,1,NO
58,174,58.0,58,0,0.0,0,174,58.0,58,3,0,1,NO
24,72,24.0,24,0,0.0,0,72,24.0,24,3,0,1,NO
64,192,64.0,64,0,0.0,0,192,64.0,64,3,0,1,NO
216,648,216.0,216,0,0.0,0,648,216.0,216,3,0,1,NO
36,108,36.0,36,0,0.0,0,108,36.0,36,3,0,1,NO
36,108,36.0,36,0,0.0,0,108,36.0,36,3,0,1,NO
202,606,202.0,202,0,0.0,0,606,202.0,202,3,0,1,NO
74,222,74.0,74,0,0.0,0,222,74.0,74,3,0,1,NO
71,213,71.0,71,0,0.0,0,213,71.0,71,3,0,1,NO
56,168,56.0,56,0,0.0,0,168,56.0,56,3,0,1,NO
44,132,44.0,44,0,0.0,0,132,44.0,44,3,0,1,NO
55,165,55.0,55,0,0.0,0,165,55.0,55,3,0,1,NO
47,188,47.0,47,47,11.75,47,141,35.25,47,4,0,2,NO
101,767,69.72727272727273,101,221,20.09090909090909,101,546,49.63636363636363,81,11,2,4,YES
109,435,87.0,109,108,21.6,107,327,65.4,109,5,0,2,NO
28,112,28.0,28,28,7.0,28,84,21.0,28,4,0,2,NO
54,324,54.0,54,0,0.0,0,324,54.0,54,6,2,3,YES
158,942,104.66666666666667,155,3,0.3333333333333333,1,939,104.33333333333333,155,9,2,4,YES
52,420,42.0,52,111,11.1,52,309,30.9,51,10,2,4,YES
53,318,53.0,53,0,0.0,0,318,53.0,53,6,2,3,YES
81,486,81.0,81,0,0.0,0,486,81.0,81,6,2,3,YES
83,498,83.0,83,0,0.0,0,498,83.0,83,6,2,3,YES
63,378,63.0,63,0,0.0,0,378,63.0,63,6,2,3,YES
48,288,48.0,48,0,0.0,0,288,48.0,48,6,2,3,YES
55,330,55.0,55,0,0.0,0,330,55.0,55,6,2,3,YES
149,983,89.36363636363636,150,86,7.818181818181818,33,933,84.81818181818181,150,11,2,4,YES
263,1563,173.66666666666666,258,0,0.0,0,1563,173.66666666666666,258,9,2,4,YES
179,1209,120.9,165,177,17.7,58,1074,107.4,165,10,2,4,YES
37,222,37.0,37,0,0.0,0,222,37.0,37,6,2,3,YES
25,150,25.0,25,0,0.0,0,150,25.0,25,6,2,3,YES
30,180,30.0,30,0,0.0,0,180,30.0,30,6,2,3,YES
36,219,24.333333333333332,35,6,0.6666666666666666,2,213,23.666666666666668,35,9,2,4,YES
30,180,30.0,30,0,0.0,0,180,30.0,30,6,2,3,YES
27,162,27.0,27,0,0.0,0,162,27.0,27,6,2,3,YES
37,222,37.0,37,0,0.0,0,222,37.0,37,6,2,3,YES
33,198,33.0,33,0,0.0,0,198,33.0,33,6,2,3,YES
31,186,31.0,31,0,0.0,0,186,31.0,31,6,2,3,YES
56,336,56.0,56,0,0.0,0,336,56.0,56,6,2,3,YES
101,606,101.0,101,0,0.0,0,606,101.0,101,6,2,3,YES
139,837,93.0,136,12,1.3333333333333333,4,825,91.66666666666667,136,9,2,4,YES
85,513,57.0,85,3,0.3333333333333333,1,510,56.666666666666664,85,9,2,4,YES
95,570,95.0,95,0,0.0,0,570,95.0,95,6,2,3,YES
60,360,60.0,60,0,0.0,0,360,60.0,60,6,2,3,YES
35,210,35.0,35,0,0.0,0,210,35.0,35,6,2,3,YES
26,156,26.0,26,0,0.0,0,156,26.0,26,6,2,3,YES
69,414,69.0,69,0,0.0,0,414,69.0,69,6,2,3,YES
64,384,64.0,64,0,0.0,0,384,64.0,64,6,2,3,YES
39,234,39.0,39,0,0.0,0,234,39.0,39,6,2,3,YES
41,246,41.0,41,0,0.0,0,246,41.0,41,6,2,3,YES
167,1005,111.66666666666667,167,3,0.3333333333333333,1,1002,111.33333333333333,167,9,2,4,YES
66,396,66.0,66,0,0.0,0,396,66.0,66,6,2,3,YES
93,567,63.0,91,15,1.6666666666666667,5,552,61.333333333333336,91,9,2,4,YES
76,8,8.0,8,1,1.0,1,7,7.0,7,1,0,1,NO
77,8,1.0,1,8,1.0,1,0,0.0,0,8,1,6,YES
83,16,2.0,2,16,2.0,2,0,0.0,0,8,1,6,YES
48,0,0.0,0,0,0.0,0,0,0.0,0,0,0,0,NO
85,0,0.0,0,0,0.0,0,0,0.0,0,0,0,0,NO
43,0,0.0,0,0,0.0,0,0,0.0,0,0,0,0,NO
90,0,0.0,0,0,0.0,0,0,0.0,0,0,0,0,NO
202,0,0.0,0,0,0.0,0,0,0.0,0,0,0,0,NO
135,0,0.0,0,0,0.0,0,0,0.0,0,0,0,0,NO
30,0,0.0,0,0,0.0,0,0,0.0,0,0,0,0,NO
29,0,0.0,0,0,0.0,0,0,0.0,0,0,0,0,NO
69,0,0.0,0,0,0.0,0,0,0.0,0,0,0,0,YES
242,243,243.0,243,0,0.0,0,243,243.0,243,1,0,1,NO
64,22,22.0,22,10,10.0,10,12,12.0,12,1,0,1,YES
50,300,50.0,50,0,0.0,0,300,50.0,50,6,1,4,YES
89,0,0.0,0,0,0.0,0,0,0.0,0,0,0,0,NO
40,240,40.0,40,0,0.0,0,240,40.0,40,6,1,4,YES
49,0,0.0,0,0,0.0,0,0,0.0,0,0,0,0,NO
249,145,11.153846153846153,24,145,11.153846153846153,25,28,2.1538461538461537,3,13,1,7,YES
40,0,0.0,0,0,0.0,0,0,0.0,0,0,0,0,NO
171,17,2.125,10,10,1.25,3,7,0.875,7,8,1,6,YES
40,0,0.0,0,0,0.0,0,0,0.0,0,0,0,0,NO
32,0,0.0,0,0,0.0,0,0,0.0,0,0,0,0,NO
139,0,0.0,0,0,0.0,0,0,0.0,0,0,0,0,YES
131,8,1.0,1,8,1.0,1,0,0.0,0,8,1,6,YES
149,8,1.0,1,8,1.0,1,0,0.0,0,8,1,6,YES
86,0,0.0,0,0,0.0,0,0,0.0,0,0,0,0,NO
69,0,0.0,0,0,0.0,0,0,0.0,0,0,0,0,NO
88,0,0.0,0,0,0.0,0,0,0.0,0,0,0,0,NO
42,0,0.0,0,0,0.0,0,0,0.0,0,0,0,0,NO
32,0,0.0,0,0,0.0,0,0,0.0,0,0,0,0,NO
56,2,2.0,2,3,3.0,3,1,1.0,1,1,0,1,NO
51,0,0.0,0,0,0.0,0,0,0.0,0,0,0,0,NO
81,0,0.0,0,0,0.0,0,0,0.0,0,0,0,0,NO
35,0,0.0,0,0,0.0,0,0,0.0,0,0,0,0,NO
72,0,0.0,0,0,0.0,0,0,0.0,0,0,0,0,NO
46,0,0.0,0,0,0.0,0,0,0.0,0,0,0,0,NO
46,0,0.0,0,0,0.0,0,0,0.0,0,0,0,0,NO
44,0,0.0,0,0,0.0,0,0,0.0,0,0,0,0,NO
29,0,0.0,0,0,0.0,0,0,0.0,0,0,0,0,NO
280,281,281.0,281,0,0.0,0,281,281.0,281,1,0,1,NO
63,37,7.4,21,13,2.6,9,24,4.8,12,5,1,3,YES
334,0,0.0,0,0,0.0,0,0,0.0,0,0,0,0,YES
46,0,0.0,0,0,0.0,0,0,0.0,0,0,0,0,NO
31,0,0.0,0,0,0.0,0,0,0.0,0,0,0,0,NO
83,0,0.0,0,0,0.0,0,0,0.0,0,0,0,0,NO
71,0,0.0,0,0,0.0,0,0,0.0,0,0,0,0,NO
83,0,0.0,0,0,0.0,0,0,0.0,0,0,0,0,NO
40,0,0.0,0,0,0.0,0,0,0.0,0,0,0,0,NO
32,0,0.0,0,0,0.0,0,0,0.0,0,0,0,0,NO
57,0,0.0,0,0,0.0,0,0,0.0,0,0,0,0,NO
50,0,0.0,0,0,0.0,0,0,0.0,0,0,0,0,YES
81,0,0.0,0,0,0.0,0,0,0.0,0,0,0,0,YES
35,0,0.0,0,0,0.0,0,0,0.0,0,0,0,0,YES
71,0,0.0,0,0,0.0,0,0,0.0,0,0,0,0,YES
46,0,0.0,0,0,0.0,0,0,0.0,0,0,0,0,NO
46,0,0.0,0,0,0.0,0,0,0.0,0,0,0,0,NO
289,289,289.0,289,0,0.0,0,289,289.0,289,1,0,1,YES
143,143,143.0,143,0,0.0,0,143,143.0,143,1,0,1,NO
81,81,81.0,81,0,0.0,0,81,81.0,81,1,0,1,NO
132,132,132.0,132,0,0.0,0,132,132.0,132,1,0,1,NO
146,146,146.0,146,0,0.0,0,146,146.0,146,1,0,1,NO
76,76,76.0,76,0,0.0,0,76,76.0,76,1,0,1,NO
420,420,420.0,420,0,0.0,0,420,420.0,420,1,0,1,YES
306,306,306.0,306,0,0.0,0,306,306.0,306,1,0,1,NO
48,65,21.666666666666668,31,0,0.0,0,65,21.666666666666668,31,3,0,2,NO
31,48,16.0,17,0,0.0,0,48,16.0,17,3,0,2,NO
62,108,18.0,57,31,5.166666666666667,8,79,13.166666666666666,57,6,0,4,NO
96,110,18.333333333333332,95,11,1.8333333333333333,3,99,16.5,95,6,0,4,NO
77,91,15.166666666666666,76,11,1.8333333333333333,3,80,13.333333333333334,76,6,0,4,NO
111,125,20.833333333333332,112,17,2.8333333333333335,4,116,19.333333333333332,112,6,0,4,NO
43,138,23.0,26,0,0.0,0,138,23.0,26,6,0,3,NO
63,219,31.285714285714285,46,1,0.14285714285714285,1,218,31.142857142857142,46,7,0,3,NO
235,275,45.833333333333336,240,55,9.166666666666666,12,260,43.333333333333336,240,6,0,4,NO
75,75,75.0,75,0,0.0,0,75,75.0,75,1,0,1,NO
43,60,20.0,26,0,0.0,0,60,20.0,26,3,0,2,NO
33,33,33.0,33,0,0.0,0,33,33.0,33,1,0,1,NO
63,80,26.666666666666668,46,0,0.0,0,80,26.666666666666668,46,3,0,2,NO
94,113,16.142857142857142,92,13,1.8571428571428572,4,100,14.285714285714286,92,7,0,4,NO
40,40,40.0,40,0,0.0,0,40,40.0,40,1,0,1,NO
160,191,31.833333333333332,161,34,5.666666666666667,7,165,27.5,161,6,0,4,NO
40,40,40.0,40,0,0.0,0,40,40.0,40,1,0,1,NO
32,32,32.0,32,0,0.0,0,32,32.0,32,1,0,1,NO
86,0,0.0,0,0,0.0,0,0,0.0,0,0,0,0,NO
25,0,0.0,0,0,0.0,0,0,0.0,0,0,0,0,NO
178,188,31.333333333333332,66,47,7.833333333333333,31,141,23.5,35,6,2,5,YES
94,12,12.0,12,8,8.0,8,4,4.0,4,1,0,1,NO
167,167,167.0,167,0,0.0,0,167,167.0,167,1,0,1,NO
29,0,0.0,0,0,0.0,0,0,0.0,0,0,0,0,NO
26,26,26.0,26,0,0.0,0,26,26.0,26,1,0,1,NO
52,8,1.0,1,8,1.0,1,0,0.0,0,8,2,3,YES
43,0,0.0,0,0,0.0,0,0,0.0,0,0,0,0,NO
195,1,1.0,1,1,1.0,1,0,0.0,0,1,0,1,YES
240,159,8.833333333333334,56,156,8.666666666666666,34,51,2.8333333333333335,22,18,2,7,YES
28,0,0.0,0,0,0.0,0,0,0.0,0,0,0,0,NO
37,0,0.0,0,0,0.0,0,0,0.0,0,0,0,0,NO
69,23,23.0,23,5,5.0,5,18,18.0,18,1,0,1,NO
28,0,0.0,0,0,0.0,0,0,0.0,0,0,0,0,NO
284,59,5.363636363636363,34,45,4.090909090909091,23,14,1.2727272727272727,11,11,2,5,YES
44,8,8.0,8,0,0.0,0,8,8.0,8,1,0,1,NO
51,6,6.0,6,5,5.0,5,1,1.0,1,1,0,1,NO
38,0,0.0,0,0,0.0,0,0,0.0,0,0,0,0,NO
52,0,0.0,0,0,0.0,0,0,0.0,0,0,0,0,NO
37,0,0.0,0,0,0.0,0,0,0.0,0,0,0,0,NO
46,0,0.0,0,0,0.0,0,0,0.0,0,0,0,0,NO
25,25,25.0,25,0,0.0,0,25,25.0,25,1,0,1,NO
113,1,1.0,1,1,1.0,1,0,0.0,0,1,0,1,YES
36,0,0.0,0,0,0.0,0,0,0.0,0,0,0,0,NO
116,1,1.0,1,1,1.0,1,0,0.0,0,1,0,1,NO
121,48,3.2,9,6,0.4,4,42,2.8,6,15,2,7,YES
48,1,1.0,1,1,1.0,1,0,0.0,0,1,0,1,NO
32,0,0.0,0,0,0.0,0,0,0.0,0,0,0,0,NO
34,0,0.0,0,0,0.0,0,0,0.0,0,0,0,0,NO
26,0,0.0,0,0,0.0,0,0,0.0,0,0,0,0,NO
50,4,4.0,4,3,3.0,3,1,1.0,1,1,0,1,NO
31,0,0.0,0,0,0.0,0,0,0.0,0,0,0,0,NO
98,20,20.0,20,6,6.0,6,14,14.0,14,1,0,1,NO
26,0,0.0,0,0,0.0,0,0,0.0,0,0,0,0,NO
25,6,6.0,6,1,1.0,1,5,5.0,5,1,0,1,NO
40,0,0.0,0,0,0.0,0,0,0.0,0,0,0,0,NO
59,3,3.0,3,2,2.0,2,1,1.0,1,1,0,1,YES
36,18,18.0,18,5,5.0,5,13,13.0,13,1,0,1,NO
58,0,0.0,0,0,0.0,0,0,0.0,0,0,0,0,YES
37,0,0.0,0,0,0.0,0,0,0.0,0,0,0,0,NO
281,75,6.818181818181818,30,56,5.090909090909091,17,19,1.7272727272727273,13,11,2,5,YES
99,0,0.0,0,0,0.0,0,0,0.0,0,0,0,0,NO
57,0,0.0,0,0,0.0,0,0,0.0,0,0,0,0,NO
31,0,0.0,0,0,0.0,0,0,0.0,0,0,0,0,NO
70,17,17.0,17,3,3.0,3,14,14.0,14,1,0,1,NO
41,0,0.0,0,0,0.0,0,0,0.0,0,0,0,0,NO
28,0,0.0,0,0,0.0,0,0,0.0,0,0,0,0,NO
34,0,0.0,0,0,0.0,0,0,0.0,0,0,0,0,NO
26,0,0.0,0,0,0.0,0,0,0.0,0,0,0,0,NO
67,83,16.6,67,16,3.2,4,67,13.4,67,5,0,4,NO
112,560,112.0,112,0,0.0,0,560,112.0,112,5,0,4,NO
100,500,100.0,100,0,0.0,0,500,100.0,100,5,0,4,NO
82,410,82.0,82,0,0.0,0,410,82.0,82,5,0,4,NO
97,485,97.0,97,0,0.0,0,485,97.0,97,5,0,4,NO
47,235,47.0,47,0,0.0,0,235,47.0,47,5,0,4,NO
38,190,38.0,38,0,0.0,0,190,38.0,38,5,0,4,NO
25,125,25.0,25,0,0.0,0,125,25.0,25,5,0,4,NO
60,321,29.181818181818183,65,36,3.272727272727273,6,345,31.363636363636363,65,11,1,6,YES
50,250,50.0,50,0,0.0,0,250,50.0,50,5,0,4,NO
40,200,40.0,40,0,0.0,0,200,40.0,40,5,0,4,NO
22,110,22.0,22,0,0.0,0,110,22.0,22,5,0,4,NO
21,105,21.0,21,0,0.0,0,105,21.0,21,5,0,4,NO
27,135,27.0,27,0,0.0,0,135,27.0,27,5,0,4,NO
96,386,64.33333333333333,96,2,0.3333333333333333,2,384,64.0,96,6,0,3,NO
69,276,69.0,69,0,0.0,0,276,69.0,69,4,0,3,NO
69,278,55.6,69,2,0.4,2,276,55.2,69,5,0,3,NO
34,140,28.0,35,0,0.0,0,140,28.0,35,5,0,3,NO
34,136,15.11111111111111,33,2,0.2222222222222222,1,134,14.88888888888889,33,9,0,3,NO
238,526,35.06666666666667,294,461,30.733333333333334,111,617,41.13333333333333,294,15,0,7,NO
80,84,16.8,80,4,0.8,1,80,16.0,80,5,0,4,NO
58,189,18.9,78,191,19.1,39,158,15.8,78,10,0,6,NO
74,277,17.3125,76,199,12.4375,39,144,9.0,76,16,0,6,NO
269,712,35.6,316,625,31.25,130,669,33.45,316,20,1,7,YES
83,87,17.4,83,4,0.8,1,83,16.6,83,5,0,4,NO
56,194,19.4,70,180,18.0,37,142,14.2,70,10,0,6,NO
79,294,18.375,75,193,12.0625,37,117,7.3125,75,16,0,6,NO
72,0,0.0,0,0,0.0,0,0,0.0,0,0,0,0,NO
89,89,89.0,89,0,0.0,0,89,89.0,89,1,0,1,NO
304,304,304.0,304,0,0.0,0,304,304.0,304,1,0,1,NO
1560,804,26.8,152,53,1.7666666666666666,19,777,25.9,133,30,3,10,YES
351,25,12.5,18,1,0.5,1,24,12.0,18,2,1,2,YES
36,0,0.0,0,0,0.0,0,0,0.0,0,0,0,0,YES
32,0,0.0,0,0,0.0,0,0,0.0,0,0,0,0,YES
49,0,0.0,0,0,0.0,0,0,0.0,0,0,0,0,YES
27,0,0.0,0,0,0.0,0,0,0.0,0,0,0,0,NO
445,55,55.0,55,33,33.0,33,22,22.0,22,1,0,1,YES
119,0,0.0,0,0,0.0,0,0,0.0,0,0,0,0,NO
153,0,0.0,0,0,0.0,0,0,0.0,0,0,0,0,NO
51,0,0.0,0,0,0.0,0,0,0.0,0,0,0,0,NO
51,0,0.0,0,0,0.0,0,0,0.0,0,0,0,0,NO
108,2,2.0,2,2,2.0,2,0,0.0,0,1,0,1,NO
46,0,0.0,0,0,0.0,0,0,0.0,0,0,0,0,NO
53,0,0.0,0,0,0.0,0,0,0.0,0,0,0,0,NO
447,11,11.0,11,0,0.0,0,11,11.0,11,1,0,1,NO
382,0,0.0,0,0,0.0,0,0,0.0,0,0,0,0,NO
30,0,0.0,0,0,0.0,0,0,0.0,0,0,0,0,NO
22,0,0.0,0,0,0.0,0,0,0.0,0,0,0,0,NO
114,6,6.0,6,0,0.0,0,6,6.0,6,1,0,1,YES
259,49,8.166666666666666,14,13,2.1666666666666665,8,36,6.0,6,6,1,4,YES
75,0,0.0,0,0,0.0,0,0,0.0,0,0,0,0,NO
93,0,0.0,0,0,0.0,0,0,0.0,0,0,0,0,NO
52,4,4.0,4,1,1.0,1,3,3.0,3,1,0,1,NO
394,12,12.0,12,1,1.0,1,11,11.0,11,1,0,1,NO
59,0,0.0,0,0,0.0,0,0,0.0,0,0,0,0,NO
124,4,4.0,4,4,4.0,4,0,0.0,0,1,0,1,YES
405,109,21.8,105,48,9.6,44,61,12.2,61,5,0,2,NO
982,1084,180.66666666666666,983,101,16.833333333333332,97,983,163.83333333333334,983,6,0,3,NO
405,109,21.8,105,48,9.6,44,61,12.2,61,5,0,2,YES
513,136,27.2,132,66,13.2,62,70,14.0,70,5,0,2,NO
1389,589,117.8,585,327,65.4,323,262,52.4,262,5,0,2,NO
713,223,44.6,219,124,24.8,120,99,19.8,99,5,0,2,NO
768,1587,113.35714285714286,769,52,3.7142857142857144,28,1537,109.78571428571429,769,14,1,6,YES
851,281,56.2,277,153,30.6,149,128,25.6,128,5,0,2,NO
462,73,73.0,73,13,13.0,13,60,60.0,60,1,0,1,NO
457,171,28.5,144,103,17.166666666666668,76,68,11.333333333333334,68,6,0,3,YES
405,109,21.8,105,48,9.6,44,61,12.2,61,5,0,2,NO
506,129,25.8,125,64,12.8,60,65,13.0,65,5,0,2,NO
1328,393,78.6,389,144,28.8,140,249,49.8,249,5,0,2,YES
2935,898,179.6,894,309,61.8,305,589,117.8,589,5,0,2,YES
713,198,39.6,194,110,22.0,106,88,17.6,88,5,0,2,NO
498,134,26.8,130,72,14.4,68,62,12.4,62,5,0,2,NO
387,62,62.0,62,10,10.0,10,52,52.0,52,1,0,1,NO
914,408,81.6,404,189,37.8,185,219,43.8,219,5,0,2,NO
921,238,47.6,234,141,28.2,137,97,19.4,97,5,0,2,NO
421,426,85.2,422,4,0.8,1,422,84.4,422,5,0,2,NO
506,129,25.8,125,64,12.8,60,65,13.0,65,5,0,2,NO
800,142,142.0,142,21,21.0,21,121,121.0,121,1,0,1,NO
405,109,21.8,105,48,9.6,44,61,12.2,61,5,0,2,NO
560,164,32.8,160,83,16.6,79,81,16.2,81,5,0,2,NO
631,95,95.0,95,13,13.0,13,82,82.0,82,1,0,1,NO
406,127,25.4,123,57,11.4,53,70,14.0,70,5,0,2,NO
457,3687,409.6666666666667,458,23,2.5555555555555554,23,3664,407.1111111111111,458,9,1,4,YES
470,3793,421.44444444444446,471,25,2.7777777777777777,25,3768,418.6666666666667,471,9,1,4,YES
405,3248,406.0,406,0,0.0,0,3248,406.0,406,8,1,3,YES
754,6059,673.2222222222222,755,19,2.111111111111111,19,6040,671.1111111111111,755,9,1,4,YES
560,4507,500.77777777777777,561,19,2.111111111111111,19,4488,498.6666666666667,561,9,1,4,YES
470,3793,421.44444444444446,471,25,2.7777777777777777,25,3768,418.6666666666667,471,9,1,4,YES
21405,10172,782.4615384615385,7378,2261,173.92307692307693,2249,7911,608.5384615384615,5129,13,1,7,YES
555,577,96.16666666666667,556,21,3.5,17,556,92.66666666666667,556,6,0,3,NO
405,109,21.8,105,48,9.6,44,61,12.2,61,5,0,2,NO
299,89,17.8,85,31,6.2,27,58,11.6,58,5,0,2,NO
65,65,65.0,65,0,0.0,0,65,65.0,65,1,0,1,NO
663,250,41.666666666666664,223,152,25.333333333333332,125,98,16.333333333333332,98,6,0,3,NO
515,146,29.2,142,64,12.8,60,82,16.4,82,5,0,2,NO
513,136,27.2,132,66,13.2,62,70,14.0,70,5,0,2,NO
916,383,76.6,379,239,47.8,235,144,28.8,144,5,0,2,NO
513,136,27.2,132,66,13.2,62,70,14.0,70,5,0,2,NO
1210,1238,206.33333333333334,1211,27,4.5,23,1211,201.83333333333334,1211,6,0,3,NO
802,272,54.4,268,146,29.2,142,126,25.2,126,5,0,2,NO
553,166,33.2,162,91,18.2,87,75,15.0,75,5,0,2,NO
532,148,29.6,144,68,13.6,64,80,16.0,80,5,0,2,YES
1287,2122,192.9090909090909,1288,92,8.363636363636363,55,2030,184.54545454545453,1288,11,1,5,YES
908,1160,116.0,305,183,18.3,119,977,97.7,186,10,1,4,YES
515,4128,516.0,516,0,0.0,0,4128,516.0,516,8,1,3,YES
387,387,387.0,387,0,0.0,0,387,387.0,387,1,0,1,NO
1279,386,77.2,382,231,46.2,227,155,31.0,155,5,0,2,YES
62,2,2.0,2,1,1.0,1,1,1.0,1,1,0,1,NO
68,68,68.0,68,0,0.0,0,68,68.0,68,1,0,1,NO
1207,303,37.875,296,197,24.625,190,106,13.25,106,8,1,4,YES
43,0,0.0,0,0,0.0,0,0,0.0,0,0,0,0,NO
82,82,82.0,82,0,0.0,0,82,82.0,82,1,0,1,NO
61,0,0.0,0,0,0.0,0,0,0.0,0,0,0,0,NO
38,0,0.0,0,0,0.0,0,0,0.0,0,0,0,0,NO
32,0,0.0,0,0,0.0,0,0,0.0,0,0,0,0,NO
32,0,0.0,0,0,0.0,0,0,0.0,0,0,0,0,NO
32,0,0.0,0,0,0.0,0,0,0.0,0,0,0,0,NO
35,0,0.0,0,0,0.0,0,0,0.0,0,0,0,0,NO
30,0,0.0,0,0,0.0,0,0,0.0,0,0,0,0,NO
30,0,0.0,0,0,0.0,0,0,0.0,0,0,0,0,NO
49,66,22.0,32,0,0.0,0,66,22.0,32,3,0,2,NO
49,0,0.0,0,0,0.0,0,0,0.0,0,0,0,0,NO
59,0,0.0,0,0,0.0,0,0,0.0,0,0,0,0,NO
53,0,0.0,0,0,0.0,0,0,0.0,0,0,0,0,NO
57,0,0.0,0,0,0.0,0,0,0.0,0,0,0,0,NO
627,1081,56.89473684210526,503,1082,56.94736842105263,261,837,44.05263157894737,242,19,0,5,YES
125,59,11.8,23,46,9.2,12,29,5.8,13,5,0,2,YES
71,0,0.0,0,0,0.0,0,0,0.0,0,0,0,0,YES
136,11,2.2,4,31,6.2,23,36,7.2,20,5,0,1,YES
145,0,0.0,0,0,0.0,0,0,0.0,0,0,0,0,YES
43,0,0.0,0,0,0.0,0,0,0.0,0,0,0,0,YES
52,0,0.0,0,0,0.0,0,0,0.0,0,0,0,0,NO
99,0,0.0,0,0,0.0,0,0,0.0,0,0,0,0,YES
166,0,0.0,0,0,0.0,0,0,0.0,0,0,0,0,YES
31,0,0.0,0,0,0.0,0,0,0.0,0,0,0,0,YES
165,0,0.0,0,0,0.0,0,0,0.0,0,0,0,0,YES
31,0,0.0,0,0,0.0,0,0,0.0,0,0,0,0,YES
157,2,2.0,2,3,3.0,3,1,1.0,1,1,0,1,YES
83,0,0.0,0,0,0.0,0,0,0.0,0,0,0,0,YES
155,0,0.0,0,0,0.0,0,0,0.0,0,0,0,0,YES
74,0,0.0,0,0,0.0,0,0,0.0,0,0,0,0,YES
337,110,110.0,110,74,74.0,74,36,36.0,36,1,0,1,YES
41,0,0.0,0,0,0.0,0,0,0.0,0,0,0,0,NO
53,3,1.5,2,4,2.0,3,1,0.5,1,2,0,2,YES
66,0,0.0,0,0,0.0,0,0,0.0,0,0,0,0,YES
57,0,0.0,0,0,0.0,0,0,0.0,0,0,0,0,YES
72,0,0.0,0,0,0.0,0,0,0.0,0,0,0,0,NO
64,0,0.0,0,0,0.0,0,0,0.0,0,0,0,0,NO
155,0,0.0,0,0,0.0,0,0,0.0,0,0,0,0,NO
34,0,0.0,0,0,0.0,0,0,0.0,0,0,0,0,NO
38,0,0.0,0,0,0.0,0,0,0.0,0,0,0,0,NO
41,0,0.0,0,0,0.0,0,0,0.0,0,0,0,0,NO
23,0,0.0,0,0,0.0,0,0,0.0,0,0,0,0,NO
22,0,0.0,0,0,0.0,0,0,0.0,0,0,0,0,NO
60,0,0.0,0,0,0.0,0,0,0.0,0,0,0,0,NO
24,0,0.0,0,0,0.0,0,0,0.0,0,0,0,0,NO
22,0,0.0,0,0,0.0,0,0,0.0,0,0,0,0,NO
55,0,0.0,0,0,0.0,0,0,0.0,0,0,0,0,NO
45,0,0.0,0,0,0.0,0,0,0.0,0,0,0,0,NO
50,0,0.0,0,0,0.0,0,0,0.0,0,0,0,0,NO
38,0,0.0,0,0,0.0,0,0,0.0,0,0,0,0,NO
31,0,0.0,0,0,0.0,0,0,0.0,0,0,0,0,NO
30,0,0.0,0,0,0.0,0,0,0.0,0,0,0,0,NO
31,0,0.0,0,0,0.0,0,0,0.0,0,0,0,0,NO
38,0,0.0,0,0,0.0,0,0,0.0,0,0,0,0,NO
31,0,0.0,0,0,0.0,0,0,0.0,0,0,0,0,NO
32,0,0.0,0,0,0.0,0,0,0.0,0,0,0,0,NO
80,0,0.0,0,0,0.0,0,0,0.0,0,0,0,0,NO
82,0,0.0,0,0,0.0,0,0,0.0,0,0,0,0,NO
202,0,0.0,0,0,0.0,0,0,0.0,0,0,0,0,NO
40,0,0.0,0,0,0.0,0,0,0.0,0,0,0,0,NO
185,0,0.0,0,0,0.0,0,0,0.0,0,0,0,0,NO
51,0,0.0,0,0,0.0,0,0,0.0,0,0,0,0,NO
31,0,0.0,0,0,0.0,0,0,0.0,0,0,0,0,NO
28,0,0.0,0,0,0.0,0,0,0.0,0,0,0,0,NO
25,0,0.0,0,0,0.0,0,0,0.0,0,0,0,0,NO
25,0,0.0,0,0,0.0,0,0,0.0,0,0,0,0,NO
33,0,0.0,0,0,0.0,0,0,0.0,0,0,0,0,NO
448,0,0.0,0,0,0.0,0,0,0.0,0,0,0,0,YES
54,0,0.0,0,0,0.0,0,0,0.0,0,0,0,0,NO
39,0,0.0,0,0,0.0,0,0,0.0,0,0,0,0,NO
40,0,0.0,0,0,0.0,0,0,0.0,0,0,0,0,NO
45,0,0.0,0,0,0.0,0,0,0.0,0,0,0,0,NO
58,0,0.0,0,0,0.0,0,0,0.0,0,0,0,0,NO
110,0,0.0,0,0,0.0,0,0,0.0,0,0,0,0,NO
89,0,0.0,0,0,0.0,0,0,0.0,0,0,0,0,NO
57,0,0.0,0,0,0.0,0,0,0.0,0,0,0,0,NO
89,0,0.0,0,0,0.0,0,0,0.0,0,0,0,0,NO
52,0,0.0,0,0,0.0,0,0,0.0,0,0,0,0,NO
219,0,0.0,0,0,0.0,0,0,0.0,0,0,0,0,YES
125,0,0.0,0,0,0.0,0,0,0.0,0,0,0,0,YES
346,0,0.0,0,0,0.0,0,0,0.0,0,0,0,0,YES
98,0,0.0,0,0,0.0,0,0,0.0,0,0,0,0,YES
343,0,0.0,0,0,0.0,0,0,0.0,0,0,0,0,YES
296,0,0.0,0,0,0.0,0,0,0.0,0,0,0,0,YES
47,0,0.0,0,0,0.0,0,0,0.0,0,0,0,0,YES
284,0,0.0,0,0,0.0,0,0,0.0,0,0,0,0,YES
96,14,14.0,14,5,5.0,5,9,9.0,9,1,0,1,YES
43,0,0.0,0,0,0.0,0,0,0.0,0,0,0,0,YES
47,0,0.0,0,0,0.0,0,0,0.0,0,0,0,0,NO
55,0,0.0,0,0,0.0,0,0,0.0,0,0,0,0,YES
41,0,0.0,0,0,0.0,0,0,0.0,0,0,0,0,YES
42,0,0.0,0,0,0.0,0,0,0.0,0,0,0,0,YES
50,0,0.0,0,0,0.0,0,0,0.0,0,0,0,0,YES
41,0,0.0,0,0,0.0,0,0,0.0,0,0,0,0,YES
61,3,3.0,3,1,1.0,1,2,2.0,2,1,0,1,YES
45,0,0.0,0,0,0.0,0,0,0.0,0,0,0,0,YES
142,27,27.0,27,1,1.0,1,26,26.0,26,1,0,1,YES
176,67,11.166666666666666,12,38,6.333333333333333,8,29,4.833333333333333,5,6,1,4,YES
94,0,0.0,0,0,0.0,0,0,0.0,0,0,0,0,YES
163,21,2.625,7,10,1.25,3,11,1.375,4,8,0,6,YES
56,0,0.0,0,0,0.0,0,0,0.0,0,0,0,0,YES
77,2,2.0,2,2,2.0,2,0,0.0,0,1,0,1,YES
120,9,9.0,9,3,3.0,3,6,6.0,6,1,0,1,YES
77,0,0.0,0,0,0.0,0,0,0.0,0,0,0,0,YES
80,0,0.0,0,0,0.0,0,0,0.0,0,0,0,0,YES
63,34,17.0,17,0,0.0,0,34,17.0,17,2,0,1,YES
175,36,18.0,18,0,0.0,0,36,18.0,18,2,0,1,YES
57,0,0.0,0,0,0.0,0,0,0.0,0,0,0,0,YES
171,188,62.666666666666664,154,0,0.0,0,188,62.666666666666664,154,3,0,2,NO
57,0,0.0,0,0,0.0,0,0,0.0,0,0,0,0,YES
152,50,25.0,38,18,9.0,17,32,16.0,21,2,0,2,YES
70,0,0.0,0,0,0.0,0,0,0.0,0,0,0,0,YES
110,0,0.0,0,0,0.0,0,0,0.0,0,0,0,0,NO
70,3,3.0,3,3,3.0,3,0,0.0,0,1,0,1,YES
131,19,19.0,19,2,2.0,2,17,17.0,17,1,0,1,NO
281,0,0.0,0,0,0.0,0,0,0.0,0,0,0,0,YES
108,0,0.0,0,0,0.0,0,0,0.0,0,0,0,0,YES
44,0,0.0,0,0,0.0,0,0,0.0,0,0,0,0,YES
104,0,0.0,0,0,0.0,0,0,0.0,0,0,0,0,YES
209,6,6.0,6,3,3.0,3,3,3.0,3,1,0,1,YES
94,23,23.0,23,15,15.0,15,8,8.0,8,1,0,1,YES
89,0,0.0,0,0,0.0,0,0,0.0,0,0,0,0,NO
64,0,0.0,0,0,0.0,0,0,0.0,0,0,0,0,NO
58,4,4.0,4,7,7.0,7,3,3.0,3,1,0,1,NO
65,4,4.0,4,3,3.0,3,1,1.0,1,1,0,1,NO
64,516,51.6,65,4,0.4,2,516,51.6,65,10,1,3,YES
64,3,3.0,3,7,7.0,7,4,4.0,4,1,0,1,NO
57,456,57.0,57,0,0.0,0,456,57.0,57,8,1,3,YES
23,0,0.0,0,0,0.0,0,0,0.0,0,0,0,0,NO
40,0,0.0,0,0,0.0,0,0,0.0,0,0,0,0,NO
25,0,0.0,0,0,0.0,0,0,0.0,0,0,0,0,NO
26,0,0.0,0,0,0.0,0,0,0.0,0,0,0,0,NO
59,0,0.0,0,0,0.0,0,0,0.0,0,0,0,0,NO
60,0,0.0,0,0,0.0,0,0,0.0,0,0,0,0,NO
51,0,0.0,0,0,0.0,0,0,0.0,0,0,0,0,NO
58,0,0.0,0,0,0.0,0,0,0.0,0,0,0,0,NO
61,0,0.0,0,0,0.0,0,0,0.0,0,0,0,0,NO
35,1,1.0,1,1,1.0,1,0,0.0,0,1,0,1,NO
224,0,0.0,0,0,0.0,0,0,0.0,0,0,0,0,NO
52,52,52.0,52,0,0.0,0,52,52.0,52,1,0,1,NO
32,0,0.0,0,0,0.0,0,0,0.0,0,0,0,0,NO
32,0,0.0,0,0,0.0,0,0,0.0,0,0,0,0,NO
32,0,0.0,0,0,0.0,0,0,0.0,0,0,0,0,NO
32,0,0.0,0,0,0.0,0,0,0.0,0,0,0,0,NO
23,0,0.0,0,0,0.0,0,0,0.0,0,0,0,0,NO
24,0,0.0,0,0,0.0,0,0,0.0,0,0,0,0,NO
105,0,0.0,0,0,0.0,0,0,0.0,0,0,0,0,NO
29,0,0.0,0,0,0.0,0,0,0.0,0,0,0,0,NO
34,0,0.0,0,0,0.0,0,0,0.0,0,0,0,0,NO
28,0,0.0,0,0,0.0,0,0,0.0,0,0,0,0,NO
31,0,0.0,0,0,0.0,0,0,0.0,0,0,0,0,NO
38,0,0.0,0,0,0.0,0,0,0.0,0,0,0,0,NO
32,0,0.0,0,0,0.0,0,0,0.0,0,0,0,0,NO
28,0,0.0,0,0,0.0,0,0,0.0,0,0,0,0,NO
41,0,0.0,0,0,0.0,0,0,0.0,0,0,0,0,NO
266,42,6.0,6,0,0.0,0,42,6.0,6,7,2,4,YES
41,0,0.0,0,0,0.0,0,0,0.0,0,0,0,0,NO
134,0,0.0,0,0,0.0,0,0,0.0,0,0,0,0,NO
29,0,0.0,0,0,0.0,0,0,0.0,0,0,0,0,NO
22,0,0.0,0,0,0.0,0,0,0.0,0,0,0,0,NO
25,0,0.0,0,0,0.0,0,0,0.0,0,0,0,0,NO
24,0,0.0,0,0,0.0,0,0,0.0,0,0,0,0,NO
28,0,0.0,0,0,0.0,0,0,0.0,0,0,0,0,NO
30,0,0.0,0,0,0.0,0,0,0.0,0,0,0,0,NO
198,0,0.0,0,0,0.0,0,0,0.0,0,0,0,0,NO
84,14,2.0,2,14,2.0,2,0,0.0,0,7,1,5,YES
22,0,0.0,0,0,0.0,0,0,0.0,0,0,0,0,NO
31,0,0.0,0,0,0.0,0,0,0.0,0,0,0,0,NO
32,0,0.0,0,0,0.0,0,0,0.0,0,0,0,0,NO
225,0,0.0,0,0,0.0,0,0,0.0,0,0,0,0,NO
386,37,4.111111111111111,5,11,1.2222222222222223,3,26,2.888888888888889,3,9,1,4,YES
360,648,54.0,75,280,23.333333333333332,29,368,30.666666666666668,46,12,1,4,YES
106,0,0.0,0,0,0.0,0,0,0.0,0,0,0,0,NO
25,0,0.0,0,0,0.0,0,0,0.0,0,0,0,0,NO
52,0,0.0,0,0,0.0,0,0,0.0,0,0,0,0,NO
52,0,0.0,0,0,0.0,0,0,0.0,0,0,0,0,NO
72,0,0.0,0,0,0.0,0,0,0.0,0,0,0,0,NO
39,0,0.0,0,0,0.0,0,0,0.0,0,0,0,0,NO
48,0,0.0,0,0,0.0,0,0,0.0,0,0,0,0,NO
42,0,0.0,0,0,0.0,0,0,0.0,0,0,0,0,NO
87,0,0.0,0,0,0.0,0,0,0.0,0,0,0,0,NO
55,0,0.0,0,0,0.0,0,0,0.0,0,0,0,0,NO
57,0,0.0,0,0,0.0,0,0,0.0,0,0,0,0,NO
100,0,0.0,0,0,0.0,0,0,0.0,0,0,0,0,NO
42,0,0.0,0,0,0.0,0,0,0.0,0,0,0,0,NO
179,0,0.0,0,0,0.0,0,0,0.0,0,0,0,0,NO
95,0,0.0,0,0,0.0,0,0,0.0,0,0,0,0,YES
42,0,0.0,0,0,0.0,0,0,0.0,0,0,0,0,NO
61,0,0.0,0,0,0.0,0,0,0.0,0,0,0,0,NO
24,0,0.0,0,0,0.0,0,0,0.0,0,0,0,0,NO
61,0,0.0,0,0,0.0,0,0,0.0,0,0,0,0,NO
181,0,0.0,0,0,0.0,0,0,0.0,0,0,0,0,NO
38,0,0.0,0,0,0.0,0,0,0.0,0,0,0,0,NO
57,0,0.0,0,0,0.0,0,0,0.0,0,0,0,0,NO
51,0,0.0,0,0,0.0,0,0,0.0,0,0,0,0,NO
60,0,0.0,0,0,0.0,0,0,0.0,0,0,0,0,NO
50,0,0.0,0,0,0.0,0,0,0.0,0,0,0,0,NO
51,0,0.0,0,0,0.0,0,0,0.0,0,0,0,0,NO
186,0,0.0,0,0,0.0,0,0,0.0,0,0,0,0,NO
52,0,0.0,0,0,0.0,0,0,0.0,0,0,0,0,NO
49,0,0.0,0,0,0.0,0,0,0.0,0,0,0,0,NO
52,0,0.0,0,0,0.0,0,0,0.0,0,0,0,0,NO
37,0,0.0,0,0,0.0,0,0,0.0,0,0,0,0,YES
105,0,0.0,0,0,0.0,0,0,0.0,0,0,0,0,NO
63,0,0.0,0,0,0.0,0,0,0.0,0,0,0,0,NO
62,0,0.0,0,0,0.0,0,0,0.0,0,0,0,0,NO
139,0,0.0,0,0,0.0,0,0,0.0,0,0,0,0,NO
76,0,0.0,0,0,0.0,0,0,0.0,0,0,0,0,NO
60,0,0.0,0,0,0.0,0,0,0.0,0,0,0,0,NO
41,0,0.0,0,0,0.0,0,0,0.0,0,0,0,0,NO
31,0,0.0,0,0,0.0,0,0,0.0,0,0,0,0,NO
45,0,0.0,0,0,0.0,0,0,0.0,0,0,0,0,NO
85,0,0.0,0,0,0.0,0,0,0.0,0,0,0,0,NO
37,0,0.0,0,0,0.0,0,0,0.0,0,0,0,0,NO
61,0,0.0,0,0,0.0,0,0,0.0,0,0,0,0,NO
86,0,0.0,0,0,0.0,0,0,0.0,0,0,0,0,NO
34,0,0.0,0,0,0.0,0,0,0.0,0,0,0,0,NO
83,0,0.0,0,0,0.0,0,0,0.0,0,0,0,0,NO
54,0,0.0,0,0,0.0,0,0,0.0,0,0,0,0,NO
67,0,0.0,0,0,0.0,0,0,0.0,0,0,0,0,NO
62,0,0.0,0,0,0.0,0,0,0.0,0,0,0,0,NO
26,4,4.0,4,0,0.0,0,4,4.0,4,1,0,1,NO
29,0,0.0,0,0,0.0,0,0,0.0,0,0,0,0,NO
36,0,0.0,0,0,0.0,0,0,0.0,0,0,0,0,NO
33,0,0.0,0,0,0.0,0,0,0.0,0,0,0,0,NO
26,0,0.0,0,0,0.0,0,0,0.0,0,0,0,0,NO
44,0,0.0,0,0,0.0,0,0,0.0,0,0,0,0,NO
29,0,0.0,0,0,0.0,0,0,0.0,0,0,0,0,NO
29,0,0.0,0,0,0.0,0,0,0.0,0,0,0,0,NO
25,0,0.0,0,0,0.0,0,0,0.0,0,0,0,0,NO
184,131,131.0,131,0,0.0,0,131,131.0,131,1,0,1,NO
32,0,0.0,0,0,0.0,0,0,0.0,0,0,0,0,NO
53,0,0.0,0,0,0.0,0,0,0.0,0,0,0,0,NO
36,0,0.0,0,0,0.0,0,0,0.0,0,0,0,0,NO
22,0,0.0,0,0,0.0,0,0,0.0,0,0,0,0,NO
370,14,14.0,14,3,3.0,3,11,11.0,11,1,0,1,YES
33,0,0.0,0,0,0.0,0,0,0.0,0,0,0,0,NO
25,0,0.0,0,0,0.0,0,0,0.0,0,0,0,0,NO
28,0,0.0,0,0,0.0,0,0,0.0,0,0,0,0,NO
25,0,0.0,0,0,0.0,0,0,0.0,0,0,0,0,NO
25,0,0.0,0,0,0.0,0,0,0.0,0,0,0,0,NO
26,0,0.0,0,0,0.0,0,0,0.0,0,0,0,0,NO
50,0,0.0,0,0,0.0,0,0,0.0,0,0,0,0,NO
24,0,0.0,0,0,0.0,0,0,0.0,0,0,0,0,NO
25,0,0.0,0,0,0.0,0,0,0.0,0,0,0,0,NO
26,0,0.0,0,0,0.0,0,0,0.0,0,0,0,0,NO
31,0,0.0,0,0,0.0,0,0,0.0,0,0,0,0,NO
94,0,0.0,0,0,0.0,0,0,0.0,0,0,0,0,NO
61,0,0.0,0,0,0.0,0,0,0.0,0,0,0,0,NO
96,0,0.0,0,0,0.0,0,0,0.0,0,0,0,0,NO
217,0,0.0,0,0,0.0,0,0,0.0,0,0,0,0,NO
521,12,12.0,12,1,1.0,1,11,11.0,11,1,0,1,NO
56,0,0.0,0,0,0.0,0,0,0.0,0,0,0,0,NO
69,0,0.0,0,0,0.0,0,0,0.0,0,0,0,0,NO
159,0,0.0,0,0,0.0,0,0,0.0,0,0,0,0,NO
142,0,0.0,0,0,0.0,0,0,0.0,0,0,0,0,NO
149,0,0.0,0,0,0.0,0,0,0.0,0,0,0,0,NO
47,0,0.0,0,0,0.0,0,0,0.0,0,0,0,0,YES
173,0,0.0,0,0,0.0,0,0,0.0,0,0,0,0,YES
100,0,0.0,0,0,0.0,0,0,0.0,0,0,0,0,NO
136,0,0.0,0,0,0.0,0,0,0.0,0,0,0,0,NO
98,0,0.0,0,0,0.0,0,0,0.0,0,0,0,0,NO
60,9,3.0,7,9,3.0,5,10,3.3333333333333335,5,3,0,1,NO
351,10,2.5,7,10,2.5,5,12,3.0,6,4,0,1,NO
37,0,0.0,0,0,0.0,0,0,0.0,0,0,0,0,NO
37,0,0.0,0,0,0.0,0,0,0.0,0,0,0,0,NO
54,0,0.0,0,0,0.0,0,0,0.0,0,0,0,0,NO
44,0,0.0,0,0,0.0,0,0,0.0,0,0,0,0,NO
35,0,0.0,0,0,0.0,0,0,0.0,0,0,0,0,NO
24,0,0.0,0,0,0.0,0,0,0.0,0,0,0,0,NO
65,1,1.0,1,1,1.0,1,0,0.0,0,1,0,1,YES
217,0,0.0,0,0,0.0,0,0,0.0,0,0,0,0,YES
67,405,57.857142857142854,67,1,0.14285714285714285,1,404,57.714285714285715,67,7,1,5,YES
177,0,0.0,0,0,0.0,0,0,0.0,0,0,0,0,NO
59,0,0.0,0,0,0.0,0,0,0.0,0,0,0,0,NO
68,0,0.0,0,0,0.0,0,0,0.0,0,0,0,0,NO
156,0,0.0,0,0,0.0,0,0,0.0,0,0,0,0,NO
203,1008,126.0,126,296,37.0,37,712,89.0,89,8,1,3,YES
253,6,6.0,6,2,2.0,2,4,4.0,4,1,0,1,NO
43,0,0.0,0,0,0.0,0,0,0.0,0,0,0,0,NO
43,0,0.0,0,0,0.0,0,0,0.0,0,0,0,0,NO
38,0,0.0,0,0,0.0,0,0,0.0,0,0,0,0,NO
81,99,9.9,24,12,1.2,10,87,8.7,22,10,0,6,YES
64,0,0.0,0,0,0.0,0,0,0.0,0,0,0,0,NO
124,0,0.0,0,0,0.0,0,0,0.0,0,0,0,0,NO
47,0,0.0,0,0,0.0,0,0,0.0,0,0,0,0,NO
189,9,9.0,9,2,2.0,2,7,7.0,7,1,0,1,NO
498,0,0.0,0,0,0.0,0,0,0.0,0,0,0,0,YES
74,0,0.0,0,0,0.0,0,0,0.0,0,0,0,0,NO
34,0,0.0,0,0,0.0,0,0,0.0,0,0,0,0,YES
58,0,0.0,0,0,0.0,0,0,0.0,0,0,0,0,NO
109,0,0.0,0,0,0.0,0,0,0.0,0,0,0,0,NO
161,0,0.0,0,0,0.0,0,0,0.0,0,0,0,0,NO
133,184,30.666666666666668,41,104,17.333333333333332,21,84,14.0,20,6,1,2,YES
35,245,35.0,35,0,0.0,0,245,35.0,35,7,1,6,YES
628,1162,48.416666666666664,170,397,16.541666666666668,80,769,32.041666666666664,90,24,4,8,YES
131,131,131.0,131,0,0.0,0,131,131.0,131,1,0,1,NO
187,5,5.0,5,4,4.0,4,1,1.0,1,1,0,1,NO
51,0,0.0,0,0,0.0,0,0,0.0,0,0,0,0,NO
375,0,0.0,0,0,0.0,0,0,0.0,0,0,0,0,NO
53,0,0.0,0,0,0.0,0,0,0.0,0,0,0,0,YES
84,0,0.0,0,0,0.0,0,0,0.0,0,0,0,0,YES
30,0,0.0,0,0,0.0,0,0,0.0,0,0,0,0,NO
377,1,1.0,1,1,1.0,1,0,0.0,0,1,0,1,NO
40,0,0.0,0,0,0.0,0,0,0.0,0,0,0,0,NO
815,4,4.0,4,2,2.0,2,2,2.0,2,1,0,1,NO
121,2,2.0,2,2,2.0,2,0,0.0,0,1,0,1,YES
183,0,0.0,0,0,0.0,0,0,0.0,0,0,0,0,NO
32,0,0.0,0,0,0.0,0,0,0.0,0,0,0,0,NO
32,0,0.0,0,0,0.0,0,0,0.0,0,0,0,0,NO
26,0,0.0,0,0,0.0,0,0,0.0,0,0,0,0,NO
174,0,0.0,0,0,0.0,0,0,0.0,0,0,0,0,NO
31,0,0.0,0,0,0.0,0,0,0.0,0,0,0,0,NO
24,0,0.0,0,0,0.0,0,0,0.0,0,0,0,0,NO
34,0,0.0,0,0,0.0,0,0,0.0,0,0,0,0,NO
123,0,0.0,0,0,0.0,0,0,0.0,0,0,0,0,NO
87,0,0.0,0,0,0.0,0,0,0.0,0,0,0,0,NO
26,0,0.0,0,0,0.0,0,0,0.0,0,0,0,0,NO
25,0,0.0,0,0,0.0,0,0,0.0,0,0,0,0,NO
23,0,0.0,0,0,0.0,0,0,0.0,0,0,0,0,NO
23,0,0.0,0,0,0.0,0,0,0.0,0,0,0,0,NO
23,0,0.0,0,0,0.0,0,0,0.0,0,0,0,0,NO
33,0,0.0,0,0,0.0,0,0,0.0,0,0,0,0,NO
32,0,0.0,0,0,0.0,0,0,0.0,0,0,0,0,NO
29,0,0.0,0,0,0.0,0,0,0.0,0,0,0,0,NO
22,0,0.0,0,0,0.0,0,0,0.0,0,0,0,0,NO
25,0,0.0,0,0,0.0,0,0,0.0,0,0,0,0,NO
24,0,0.0,0,0,0.0,0,0,0.0,0,0,0,0,NO
31,0,0.0,0,0,0.0,0,0,0.0,0,0,0,0,NO
31,0,0.0,0,0,0.0,0,0,0.0,0,0,0,0,NO
26,0,0.0,0,0,0.0,0,0,0.0,0,0,0,0,NO
26,0,0.0,0,0,0.0,0,0,0.0,0,0,0,0,NO
26,0,0.0,0,0,0.0,0,0,0.0,0,0,0,0,NO
36,0,0.0,0,0,0.0,0,0,0.0,0,0,0,0,NO
65,0,0.0,0,0,0.0,0,0,0.0,0,0,0,0,NO
41,0,0.0,0,0,0.0,0,0,0.0,0,0,0,0,NO
39,0,0.0,0,0,0.0,0,0,0.0,0,0,0,0,NO
38,0,0.0,0,0,0.0,0,0,0.0,0,0,0,0,NO
31,0,0.0,0,0,0.0,0,0,0.0,0,0,0,0,NO
125,0,0.0,0,0,0.0,0,0,0.0,0,0,0,0,NO
38,0,0.0,0,0,0.0,0,0,0.0,0,0,0,0,NO
48,0,0.0,0,0,0.0,0,0,0.0,0,0,0,0,NO
44,0,0.0,0,0,0.0,0,0,0.0,0,0,0,0,NO
42,0,0.0,0,0,0.0,0,0,0.0,0,0,0,0,NO
46,0,0.0,0,0,0.0,0,0,0.0,0,0,0,0,NO
42,0,0.0,0,0,0.0,0,0,0.0,0,0,0,0,NO
113,0,0.0,0,0,0.0,0,0,0.0,0,0,0,0,NO
53,0,0.0,0,0,0.0,0,0,0.0,0,0,0,0,NO
56,0,0.0,0,0,0.0,0,0,0.0,0,0,0,0,NO
61,0,0.0,0,0,0.0,0,0,0.0,0,0,0,0,NO
49,0,0.0,0,0,0.0,0,0,0.0,0,0,0,0,NO
53,0,0.0,0,0,0.0,0,0,0.0,0,0,0,0,NO
29,0,0.0,0,0,0.0,0,0,0.0,0,0,0,0,NO
48,0,0.0,0,0,0.0,0,0,0.0,0,0,0,0,NO
96,0,0.0,0,0,0.0,0,0,0.0,0,0,0,0,NO
95,0,0.0,0,0,0.0,0,0,0.0,0,0,0,0,NO
51,0,0.0,0,0,0.0,0,0,0.0,0,0,0,0,NO
29,0,0.0,0,0,0.0,0,0,0.0,0,0,0,0,NO
159,0,0.0,0,0,0.0,0,0,0.0,0,0,0,0,NO
53,0,0.0,0,0,0.0,0,0,0.0,0,0,0,0,NO
56,0,0.0,0,0,0.0,0,0,0.0,0,0,0,0,NO
27,0,0.0,0,0,0.0,0,0,0.0,0,0,0,0,NO
95,0,0.0,0,0,0.0,0,0,0.0,0,0,0,0,NO
40,0,0.0,0,0,0.0,0,0,0.0,0,0,0,0,NO
45,0,0.0,0,0,0.0,0,0,0.0,0,0,0,0,NO
61,0,0.0,0,0,0.0,0,0,0.0,0,0,0,0,NO
53,0,0.0,0,0,0.0,0,0,0.0,0,0,0,0,NO
38,0,0.0,0,0,0.0,0,0,0.0,0,0,0,0,NO
64,0,0.0,0,0,0.0,0,0,0.0,0,0,0,0,NO
31,0,0.0,0,0,0.0,0,0,0.0,0,0,0,0,NO
52,0,0.0,0,0,0.0,0,0,0.0,0,0,0,0,NO
29,0,0.0,0,0,0.0,0,0,0.0,0,0,0,0,NO
33,0,0.0,0,0,0.0,0,0,0.0,0,0,0,0,NO
39,0,0.0,0,0,0.0,0,0,0.0,0,0,0,0,NO
218,0,0.0,0,0,0.0,0,0,0.0,0,0,0,0,NO
40,0,0.0,0,0,0.0,0,0,0.0,0,0,0,0,NO
27,0,0.0,0,0,0.0,0,0,0.0,0,0,0,0,NO
84,0,0.0,0,0,0.0,0,0,0.0,0,0,0,0,NO
62,0,0.0,0,0,0.0,0,0,0.0,0,0,0,0,NO
80,0,0.0,0,0,0.0,0,0,0.0,0,0,0,0,NO
59,0,0.0,0,0,0.0,0,0,0.0,0,0,0,0,NO
93,0,0.0,0,0,0.0,0,0,0.0,0,0,0,0,NO
107,0,0.0,0,0,0.0,0,0,0.0,0,0,0,0,NO
73,0,0.0,0,0,0.0,0,0,0.0,0,0,0,0,NO
106,0,0.0,0,0,0.0,0,0,0.0,0,0,0,0,NO
76,0,0.0,0,0,0.0,0,0,0.0,0,0,0,0,NO
92,0,0.0,0,0,0.0,0,0,0.0,0,0,0,0,NO
24,0,0.0,0,0,0.0,0,0,0.0,0,0,0,0,NO
33,0,0.0,0,0,0.0,0,0,0.0,0,0,0,0,NO
31,0,0.0,0,0,0.0,0,0,0.0,0,0,0,0,NO
62,0,0.0,0,0,0.0,0,0,0.0,0,0,0,0,NO
77,0,0.0,0,0,0.0,0,0,0.0,0,0,0,0,NO
25,0,0.0,0,0,0.0,0,0,0.0,0,0,0,0,NO
94,0,0.0,0,0,0.0,0,0,0.0,0,0,0,0,YES
201,0,0.0,0,0,0.0,0,0,0.0,0,0,0,0,NO
171,0,0.0,0,0,0.0,0,0,0.0,0,0,0,0,NO
199,1,1.0,1,0,0.0,0,1,1.0,1,1,0,1,NO
49,0,0.0,0,0,0.0,0,0,0.0,0,0,0,0,NO
38,0,0.0,0,0,0.0,0,0,0.0,0,0,0,0,NO
178,0,0.0,0,0,0.0,0,0,0.0,0,0,0,0,NO
94,0,0.0,0,0,0.0,0,0,0.0,0,0,0,0,NO
138,0,0.0,0,0,0.0,0,0,0.0,0,0,0,0,NO
25,0,0.0,0,0,0.0,0,0,0.0,0,0,0,0,NO
25,0,0.0,0,0,0.0,0,0,0.0,0,0,0,0,NO
36,0,0.0,0,0,0.0,0,0,0.0,0,0,0,0,NO
26,0,0.0,0,0,0.0,0,0,0.0,0,0,0,0,NO
44,0,0.0,0,0,0.0,0,0,0.0,0,0,0,0,NO
52,0,0.0,0,0,0.0,0,0,0.0,0,0,0,0,NO
50,0,0.0,0,0,0.0,0,0,0.0,0,0,0,0,NO
75,0,0.0,0,0,0.0,0,0,0.0,0,0,0,0,NO
28,0,0.0,0,0,0.0,0,0,0.0,0,0,0,0,NO
31,0,0.0,0,0,0.0,0,0,0.0,0,0,0,0,NO
41,0,0.0,0,0,0.0,0,0,0.0,0,0,0,0,NO
26,0,0.0,0,0,0.0,0,0,0.0,0,0,0,0,NO
39,0,0.0,0,0,0.0,0,0,0.0,0,0,0,0,NO
26,0,0.0,0,0,0.0,0,0,0.0,0,0,0,0,NO
30,0,0.0,0,0,0.0,0,0,0.0,0,0,0,0,NO
25,0,0.0,0,0,0.0,0,0,0.0,0,0,0,0,NO
33,0,0.0,0,0,0.0,0,0,0.0,0,0,0,0,NO
44,0,0.0,0,0,0.0,0,0,0.0,0,0,0,0,NO
23,0,0.0,0,0,0.0,0,0,0.0,0,0,0,0,NO
80,0,0.0,0,0,0.0,0,0,0.0,0,0,0,0,NO
79,0,0.0,0,0,0.0,0,0,0.0,0,0,0,0,NO
26,0,0.0,0,0,0.0,0,0,0.0,0,0,0,0,NO
83,0,0.0,0,0,0.0,0,0,0.0,0,0,0,0,NO
92,0,0.0,0,0,0.0,0,0,0.0,0,0,0,0,NO
26,0,0.0,0,0,0.0,0,0,0.0,0,0,0,0,NO
85,0,0.0,0,0,0.0,0,0,0.0,0,0,0,0,NO
67,0,0.0,0,0,0.0,0,0,0.0,0,0,0,0,NO
124,0,0.0,0,0,0.0,0,0,0.0,0,0,0,0,NO
26,0,0.0,0,0,0.0,0,0,0.0,0,0,0,0,NO
25,0,0.0,0,0,0.0,0,0,0.0,0,0,0,0,NO
76,0,0.0,0,0,0.0,0,0,0.0,0,0,0,0,NO
109,0,0.0,0,0,0.0,0,0,0.0,0,0,0,0,NO
24,0,0.0,0,0,0.0,0,0,0.0,0,0,0,0,NO
27,0,0.0,0,0,0.0,0,0,0.0,0,0,0,0,NO
47,0,0.0,0,0,0.0,0,0,0.0,0,0,0,0,NO
185,0,0.0,0,0,0.0,0,0,0.0,0,0,0,0,NO
96,0,0.0,0,0,0.0,0,0,0.0,0,0,0,0,NO
97,0,0.0,0,0,0.0,0,0,0.0,0,0,0,0,NO
23,0,0.0,0,0,0.0,0,0,0.0,0,0,0,0,NO
154,0,0.0,0,0,0.0,0,0,0.0,0,0,0,0,NO
47,0,0.0,0,0,0.0,0,0,0.0,0,0,0,0,NO
176,0,0.0,0,0,0.0,0,0,0.0,0,0,0,0,NO
36,0,0.0,0,0,0.0,0,0,0.0,0,0,0,0,NO
32,0,0.0,0,0,0.0,0,0,0.0,0,0,0,0,NO
30,0,0.0,0,0,0.0,0,0,0.0,0,0,0,0,NO
37,0,0.0,0,0,0.0,0,0,0.0,0,0,0,0,NO
33,0,0.0,0,0,0.0,0,0,0.0,0,0,0,0,NO
32,0,0.0,0,0,0.0,0,0,0.0,0,0,0,0,NO
289,0,0.0,0,0,0.0,0,0,0.0,0,0,0,0,NO
66,0,0.0,0,0,0.0,0,0,0.0,0,0,0,0,NO
426,16,1.7777777777777777,2,9,1.0,1,7,0.7777777777777778,1,9,1,6,YES
733,12,12.0,12,1,1.0,1,11,11.0,11,1,0,1,NO
147,0,0.0,0,0,0.0,0,0,0.0,0,0,0,0,NO
47,0,0.0,0,0,0.0,0,0,0.0,0,0,0,0,YES
171,0,0.0,0,0,0.0,0,0,0.0,0,0,0,0,YES
92,0,0.0,0,0,0.0,0,0,0.0,0,0,0,0,NO
44,0,0.0,0,0,0.0,0,0,0.0,0,0,0,0,NO
34,0,0.0,0,0,0.0,0,0,0.0,0,0,0,0,NO
359,0,0.0,0,0,0.0,0,0,0.0,0,0,0,0,NO
60,0,0.0,0,0,0.0,0,0,0.0,0,0,0,0,NO
28,0,0.0,0,0,0.0,0,0,0.0,0,0,0,0,NO
50,0,0.0,0,0,0.0,0,0,0.0,0,0,0,0,NO
35,0,0.0,0,0,0.0,0,0,0.0,0,0,0,0,NO
142,0,0.0,0,0,0.0,0,0,0.0,0,0,0,0,NO
66,66,66.0,66,0,0.0,0,66,66.0,66,1,0,1,NO
82,3,3.0,3,3,3.0,3,0,0.0,0,1,0,1,NO
71,568,71.0,71,0,0.0,0,568,71.0,71,8,1,3,YES
60,60,60.0,60,0,0.0,0,60,60.0,60,1,0,1,NO
159,154,22.0,22,112,16.0,16,42,6.0,6,7,2,4,YES
100,0,0.0,0,0,0.0,0,0,0.0,0,0,0,0,NO
78,13,2.1666666666666665,4,17,2.8333333333333335,4,4,0.6666666666666666,1,6,0,6,NO
87,0,0.0,0,0,0.0,0,0,0.0,0,0,0,0,NO
198,610,87.14285714285714,198,11,1.5714285714285714,3,599,85.57142857142857,198,7,0,4,NO
175,525,175.0,175,0,0.0,0,525,175.0,175,3,0,3,NO
68,0,0.0,0,0,0.0,0,0,0.0,0,0,0,0,NO
105,630,105.0,105,0,0.0,0,630,105.0,105,6,0,6,NO
58,0,0.0,0,0,0.0,0,0,0.0,0,0,0,0,NO
196,14,2.3333333333333335,4,14,2.3333333333333335,4,0,0.0,0,6,0,6,NO
87,452,75.33333333333333,87,3,0.5,3,449,74.83333333333333,87,6,1,6,YES
132,0,0.0,0,0,0.0,0,0,0.0,0,0,0,0,YES
64,0,0.0,0,0,0.0,0,0,0.0,0,0,0,0,NO
134,134,134.0,134,0,0.0,0,134,134.0,134,1,0,1,YES
432,1731,247.28571428571428,432,9,1.2857142857142858,4,1722,246.0,432,7,0,3,NO
174,15,3.0,3,10,2.0,2,5,1.0,1,5,0,5,NO
246,2,2.0,2,2,2.0,2,0,0.0,0,1,0,1,NO
107,0,0.0,0,0,0.0,0,0,0.0,0,0,0,0,NO
121,0,0.0,0,0,0.0,0,0,0.0,0,0,0,0,NO
110,3,1.5,2,3,1.5,2,0,0.0,0,2,0,2,NO
58,1,1.0,1,1,1.0,1,0,0.0,0,1,0,1,NO
37,0,0.0,0,0,0.0,0,0,0.0,0,0,0,0,NO
77,77,77.0,77,0,0.0,0,77,77.0,77,1,0,1,NO
142,5,2.5,3,5,2.5,3,0,0.0,0,2,0,2,NO
114,0,0.0,0,0,0.0,0,0,0.0,0,0,0,0,NO
59,1,1.0,1,1,1.0,1,0,0.0,0,1,0,1,NO
64,0,0.0,0,0,0.0,0,0,0.0,0,0,0,0,NO
164,0,0.0,0,0,0.0,0,0,0.0,0,0,0,0,NO
70,2,2.0,2,2,2.0,2,0,0.0,0,1,0,1,NO
32,0,0.0,0,0,0.0,0,0,0.0,0,0,0,0,NO
148,2,2.0,2,2,2.0,2,0,0.0,0,1,0,1,NO
156,0,0.0,0,0,0.0,0,0,0.0,0,0,0,0,NO
119,8,8.0,8,8,8.0,8,0,0.0,0,1,0,1,NO
118,1,1.0,1,1,1.0,1,0,0.0,0,1,0,1,NO
230,2301,209.1818181818182,230,1,0.09090909090909091,1,2300,209.0909090909091,230,11,0,7,NO
156,0,0.0,0,0,0.0,0,0,0.0,0,0,0,0,NO
85,0,0.0,0,0,0.0,0,0,0.0,0,0,0,0,NO
48,0,0.0,0,0,0.0,0,0,0.0,0,0,0,0,YES
146,5,1.0,1,5,1.0,1,0,0.0,0,5,0,5,NO
113,5,1.0,1,5,1.0,1,0,0.0,0,5,0,5,NO
147,5,1.0,1,5,1.0,1,0,0.0,0,5,0,5,NO
125,0,0.0,0,0,0.0,0,0,0.0,0,0,0,0,NO
252,0,0.0,0,0,0.0,0,0,0.0,0,0,0,0,NO
368,0,0.0,0,0,0.0,0,0,0.0,0,0,0,0,NO
106,0,0.0,0,0,0.0,0,0,0.0,0,0,0,0,NO
181,0,0.0,0,0,0.0,0,0,0.0,0,0,0,0,NO
263,1052,263.0,263,0,0.0,0,1052,263.0,263,4,0,4,YES
594,2417,219.72727272727272,595,29,2.6363636363636362,12,2388,217.0909090909091,595,11,1,7,YES
39,156,39.0,39,0,0.0,0,156,39.0,39,4,0,4,YES
39,156,39.0,39,0,0.0,0,156,39.0,39,4,0,4,NO
39,156,39.0,39,0,0.0,0,156,39.0,39,4,0,4,NO
24,96,24.0,24,0,0.0,0,96,24.0,24,4,0,4,NO
62,248,62.0,62,0,0.0,0,248,62.0,62,4,0,4,NO
77,308,77.0,77,0,0.0,0,308,77.0,77,4,0,4,YES
77,308,77.0,77,0,0.0,0,308,77.0,77,4,0,4,NO
54,216,54.0,54,0,0.0,0,216,54.0,54,4,0,4,NO
90,362,72.4,90,0,0.0,0,362,72.4,90,5,0,5,YES
58,232,58.0,58,0,0.0,0,232,58.0,58,4,0,4,NO
24,96,24.0,24,0,0.0,0,96,24.0,24,4,0,4,NO
64,256,64.0,64,0,0.0,0,256,64.0,64,4,0,4,NO
216,864,216.0,216,0,0.0,0,864,216.0,216,4,0,4,YES
36,144,36.0,36,0,0.0,0,144,36.0,36,4,0,4,NO
36,144,36.0,36,0,0.0,0,144,36.0,36,4,0,4,NO
208,906,113.25,208,74,9.25,27,834,104.25,208,8,0,5,NO
74,296,74.0,74,0,0.0,0,296,74.0,74,4,0,4,NO
71,284,71.0,71,0,0.0,0,284,71.0,71,4,0,4,YES
56,224,56.0,56,0,0.0,0,224,56.0,56,4,0,4,YES
44,176,44.0,44,0,0.0,0,176,44.0,44,4,0,4,YES
55,220,55.0,55,0,0.0,0,220,55.0,55,4,0,4,YES
36,327,27.25,36,3,0.25,2,324,27.0,36,12,0,6,YES
43,388,38.8,43,1,0.1,1,387,38.7,43,10,0,6,YES
81,764,40.21052631578947,81,205,10.789473684210526,28,591,31.105263157894736,81,19,0,7,YES
75,577,36.0625,75,52,3.25,9,531,33.1875,75,16,0,7,YES
81,710,54.61538461538461,81,1,0.07692307692307693,1,709,54.53846153846154,81,13,0,6,YES
88,664,39.05882352941177,88,48,2.823529411764706,8,626,36.8235294117647,88,17,0,7,YES
42,294,36.75,42,0,0.0,0,294,36.75,42,8,0,6,YES
82,704,44.0,82,130,8.125,21,596,37.25,82,16,0,7,NO
55,385,55.0,55,0,0.0,0,385,55.0,55,7,0,6,YES
48,336,48.0,48,0,0.0,0,336,48.0,48,7,0,6,NO
72,504,72.0,72,0,0.0,0,504,72.0,72,7,0,6,NO
113,956,53.111111111111114,117,165,9.166666666666666,29,883,49.05555555555556,117,18,0,7,YES
55,451,23.736842105263158,55,66,3.473684210526316,11,397,20.894736842105264,55,19,0,7,YES
35,250,17.857142857142858,35,5,0.35714285714285715,1,245,17.5,35,14,0,7,YES
47,188,47.0,47,0,0.0,0,188,47.0,47,4,0,4,YES
101,278,69.5,101,36,9.0,18,242,60.5,101,4,0,4,YES
109,436,109.0,109,0,0.0,0,436,109.0,109,4,0,4,NO
28,112,28.0,28,0,0.0,0,112,28.0,28,4,0,4,YES
54,108,54.0,54,0,0.0,0,108,54.0,54,2,0,2,YES
158,324,81.0,158,2,0.5,1,322,80.5,158,4,0,4,YES
52,114,28.5,52,8,2.0,4,106,26.5,52,4,0,4,YES
53,106,53.0,53,0,0.0,0,106,53.0,53,2,0,2,YES
81,162,81.0,81,0,0.0,0,162,81.0,81,2,0,2,YES
83,166,83.0,83,0,0.0,0,166,83.0,83,2,0,2,YES
63,126,63.0,63,0,0.0,0,126,63.0,63,2,0,2,YES
48,96,48.0,48,0,0.0,0,96,48.0,48,2,0,2,YES
55,110,55.0,55,0,0.0,0,110,55.0,55,2,0,2,YES
149,346,86.5,149,50,12.5,25,300,75.0,149,4,0,4,YES
263,536,134.0,263,0,0.0,0,536,134.0,263,4,0,4,YES
179,502,125.5,179,116,29.0,58,386,96.5,179,4,0,4,YES
37,74,37.0,37,0,0.0,0,74,37.0,37,2,0,2,YES
25,50,25.0,25,0,0.0,0,50,25.0,25,2,0,2,YES
30,60,30.0,30,0,0.0,0,60,30.0,30,2,0,2,YES
36,78,19.5,36,4,1.0,2,74,18.5,36,4,0,4,YES
30,60,30.0,30,0,0.0,0,60,30.0,30,2,0,2,YES
27,54,27.0,27,0,0.0,0,54,27.0,27,2,0,2,YES
37,74,37.0,37,0,0.0,0,74,37.0,37,2,0,2,YES
33,66,33.0,33,0,0.0,0,66,33.0,33,2,0,2,YES
31,62,31.0,31,0,0.0,0,62,31.0,31,2,0,2,YES
56,112,56.0,56,0,0.0,0,112,56.0,56,2,0,2,YES
101,202,101.0,101,0,0.0,0,202,101.0,101,2,0,2,YES
139,292,73.0,139,8,2.0,4,284,71.0,139,4,0,4,YES
85,172,43.0,85,2,0.5,1,170,42.5,85,4,0,4,YES
95,190,95.0,95,0,0.0,0,190,95.0,95,2,0,2,YES
60,120,60.0,60,0,0.0,0,120,60.0,60,2,0,2,YES
35,70,35.0,35,0,0.0,0,70,35.0,35,2,0,2,YES
26,52,26.0,26,0,0.0,0,52,26.0,26,2,0,2,YES
69,138,69.0,69,0,0.0,0,138,69.0,69,2,0,2,YES
64,135,15.0,64,7,0.7777777777777778,1,128,14.222222222222221,64,9,0,8,YES
39,78,39.0,39,0,0.0,0,78,39.0,39,2,0,2,YES
41,82,41.0,41,0,0.0,0,82,41.0,41,2,0,2,YES
167,336,84.0,167,2,0.5,1,334,83.5,167,4,0,4,YES
66,139,15.444444444444445,66,7,0.7777777777777778,1,132,14.666666666666666,66,9,0,8,YES
93,200,50.0,93,10,2.5,5,190,47.5,93,4,0,4,YES
78,16,2.6666666666666665,10,8,1.3333333333333333,7,24,4.0,10,6,0,4,YES
134,303,30.3,69,75,7.5,15,228,22.8,57,10,0,6,YES
83,4,2.0,2,4,2.0,2,0,0.0,0,2,0,2,YES
48,0,0.0,0,0,0.0,0,0,0.0,0,0,0,0,YES
85,0,0.0,0,0,0.0,0,0,0.0,0,0,0,0,NO
43,0,0.0,0,0,0.0,0,0,0.0,0,0,0,0,YES
90,0,0.0,0,0,0.0,0,0,0.0,0,0,0,0,YES
202,0,0.0,0,0,0.0,0,0,0.0,0,0,0,0,NO
135,0,0.0,0,0,0.0,0,0,0.0,0,0,0,0,NO
30,0,0.0,0,0,0.0,0,0,0.0,0,0,0,0,NO
29,0,0.0,0,0,0.0,0,0,0.0,0,0,0,0,NO
67,28,4.0,4,42,6.0,6,14,2.0,2,7,1,6,YES
242,0,0.0,0,0,0.0,0,0,0.0,0,0,0,0,YES
64,0,0.0,0,0,0.0,0,0,0.0,0,0,0,0,YES
50,100,50.0,50,0,0.0,0,100,50.0,50,2,0,2,YES
89,0,0.0,0,0,0.0,0,0,0.0,0,0,0,0,YES
40,80,40.0,40,0,0.0,0,80,40.0,40,2,0,2,YES
49,0,0.0,0,0,0.0,0,0,0.0,0,0,0,0,YES
249,46,23.0,23,48,24.0,24,2,1.0,1,2,0,2,YES
40,0,0.0,0,0,0.0,0,0,0.0,0,0,0,0,YES
171,2,1.0,1,2,1.0,1,0,0.0,0,2,0,2,YES
40,0,0.0,0,0,0.0,0,0,0.0,0,0,0,0,YES
32,0,0.0,0,0,0.0,0,0,0.0,0,0,0,0,YES
263,375,62.5,121,3,0.5,1,372,62.0,121,6,1,3,YES
128,401,100.25,128,0,0.0,0,401,100.25,128,4,1,3,YES
126,772,77.2,123,375,37.5,113,839,83.9,108,10,1,8,YES
143,56,11.2,18,74,14.8,24,18,3.6,6,5,1,5,YES
86,0,0.0,0,0,0.0,0,0,0.0,0,0,0,0,YES
69,0,0.0,0,0,0.0,0,0,0.0,0,0,0,0,YES
88,0,0.0,0,0,0.0,0,0,0.0,0,0,0,0,YES
42,0,0.0,0,0,0.0,0,0,0.0,0,0,0,0,YES
32,0,0.0,0,0,0.0,0,0,0.0,0,0,0,0,YES
56,0,0.0,0,0,0.0,0,0,0.0,0,0,0,0,YES
51,0,0.0,0,0,0.0,0,0,0.0,0,0,0,0,YES
81,0,0.0,0,0,0.0,0,0,0.0,0,0,0,0,YES
35,0,0.0,0,0,0.0,0,0,0.0,0,0,0,0,YES
72,0,0.0,0,0,0.0,0,0,0.0,0,0,0,0,YES
46,0,0.0,0,0,0.0,0,0,0.0,0,0,0,0,YES
46,0,0.0,0,0,0.0,0,0,0.0,0,0,0,0,YES
44,0,0.0,0,0,0.0,0,0,0.0,0,0,0,0,NO
29,0,0.0,0,0,0.0,0,0,0.0,0,0,0,0,NO
280,0,0.0,0,0,0.0,0,0,0.0,0,0,0,0,YES
63,16,4.0,4,4,1.0,1,12,3.0,3,4,0,4,YES
101,926,92.6,101,0,0.0,0,926,92.6,101,10,1,9,YES
562,3186,212.4,311,906,60.4,87,2344,156.26666666666668,228,15,1,7,YES
46,0,0.0,0,0,0.0,0,0,0.0,0,0,0,0,YES
31,0,0.0,0,0,0.0,0,0,0.0,0,0,0,0,YES
83,0,0.0,0,0,0.0,0,0,0.0,0,0,0,0,NO
71,0,0.0,0,0,0.0,0,0,0.0,0,0,0,0,YES
83,0,0.0,0,0,0.0,0,0,0.0,0,0,0,0,YES
40,0,0.0,0,0,0.0,0,0,0.0,0,0,0,0,NO
32,0,0.0,0,0,0.0,0,0,0.0,0,0,0,0,YES
57,0,0.0,0,0,0.0,0,0,0.0,0,0,0,0,YES
64,140,12.727272727272727,14,0,0.0,0,140,12.727272727272727,14,11,1,7,YES
94,130,10.833333333333334,13,0,0.0,0,130,10.833333333333334,13,12,1,7,YES
45,100,9.090909090909092,10,0,0.0,0,100,9.090909090909092,10,11,1,7,YES
98,291,24.25,29,21,1.75,3,270,22.5,27,12,1,7,YES
46,0,0.0,0,0,0.0,0,0,0.0,0,0,0,0,YES
46,0,0.0,0,0,0.0,0,0,0.0,0,0,0,0,YES
337,792,39.6,328,152,7.6,19,640,32.0,328,20,1,10,YES
143,143,143.0,143,0,0.0,0,143,143.0,143,1,0,1,YES
81,87,43.5,81,6,3.0,6,81,40.5,81,2,0,2,YES
132,132,132.0,132,0,0.0,0,132,132.0,132,1,0,1,YES
157,245,27.22222222222222,157,0,0.0,0,245,27.22222222222222,157,9,0,9,YES
76,76,76.0,76,0,0.0,0,76,76.0,76,1,0,1,YES
419,436,48.44444444444444,419,24,2.6666666666666665,3,426,47.333333333333336,419,9,1,6,YES
306,306,306.0,306,0,0.0,0,306,306.0,306,1,0,1,YES
48,99,24.75,48,0,0.0,0,99,24.75,48,4,0,4,YES
31,82,20.5,31,0,0.0,0,82,20.5,31,4,0,4,YES
64,101,14.428571428571429,62,18,2.5714285714285716,6,83,11.857142857142858,62,7,1,6,YES
105,133,16.625,96,7,0.875,2,126,15.75,96,8,1,7,YES
82,101,14.428571428571429,77,6,0.8571428571428571,2,95,13.571428571428571,77,7,1,6,YES
111,123,24.6,111,15,3.0,4,114,22.8,111,5,0,5,NO
43,172,43.0,43,0,0.0,0,172,43.0,43,4,0,4,YES
63,252,63.0,63,0,0.0,0,252,63.0,63,4,0,4,YES
235,256,64.0,235,36,9.0,12,250,62.5,235,4,0,4,NO
75,75,75.0,75,0,0.0,0,75,75.0,75,1,0,1,NO
43,94,23.5,43,0,0.0,0,94,23.5,43,4,0,4,YES
33,33,33.0,33,0,0.0,0,33,33.0,33,1,0,1,YES
66,123,17.571428571428573,63,0,0.0,0,123,17.571428571428573,63,7,1,6,YES
99,121,17.285714285714285,94,6,0.8571428571428571,2,115,16.428571428571427,94,7,1,6,YES
40,40,40.0,40,0,0.0,0,40,40.0,40,1,0,1,YES
160,186,15.5,160,29,2.4166666666666665,7,163,13.583333333333334,160,12,0,9,YES
40,40,40.0,40,0,0.0,0,40,40.0,40,1,0,1,YES
32,32,32.0,32,0,0.0,0,32,32.0,32,1,0,1,YES
86,0,0.0,0,0,0.0,0,0,0.0,0,0,0,0,NO
25,0,0.0,0,0,0.0,0,0,0.0,0,0,0,0,NO
213,122,30.5,66,35,8.75,31,87,21.75,35,4,0,4,YES
98,12,12.0,12,8,8.0,8,4,4.0,4,1,0,1,NO
184,110,11.0,22,25,2.5,5,85,8.5,17,10,0,7,NO
29,0,0.0,0,0,0.0,0,0,0.0,0,0,0,0,NO
29,15,3.0,3,0,0.0,0,15,3.0,3,5,0,4,NO
53,7,1.75,2,5,1.25,2,2,0.5,1,4,0,3,YES
43,0,0.0,0,0,0.0,0,0,0.0,0,0,0,0,NO
207,189,9.45,21,94,4.7,12,95,4.75,12,20,2,15,YES
275,93,11.625,56,64,8.0,29,57,7.125,27,8,0,6,YES
28,0,0.0,0,0,0.0,0,0,0.0,0,0,0,0,YES
37,0,0.0,0,0,0.0,0,0,0.0,0,0,0,0,YES
25,55,18.333333333333332,25,5,1.6666666666666667,5,50,16.666666666666668,25,3,0,3,YES
40,97,24.25,40,1,0.25,1,98,24.5,40,4,0,4,YES
87,23,23.0,23,5,5.0,5,18,18.0,18,1,0,1,NO
28,0,0.0,0,0,0.0,0,0,0.0,0,0,0,0,NO
316,289,8.5,26,90,2.6470588235294117,10,199,5.852941176470588,25,34,0,14,YES
47,27,3.0,3,0,0.0,0,27,3.0,3,9,0,7,NO
52,6,6.0,6,5,5.0,5,1,1.0,1,1,0,1,NO
38,0,0.0,0,0,0.0,0,0,0.0,0,0,0,0,NO
52,0,0.0,0,0,0.0,0,0,0.0,0,0,0,0,NO
37,0,0.0,0,0,0.0,0,0,0.0,0,0,0,0,YES
42,101,33.666666666666664,42,0,0.0,0,101,33.666666666666664,42,3,0,3,YES
57,57,57.0,57,0,0.0,0,57,57.0,57,1,0,1,YES
46,0,0.0,0,0,0.0,0,0,0.0,0,0,0,0,YES
25,0,0.0,0,0,0.0,0,0,0.0,0,0,0,0,NO
113,10,1.0,1,10,1.0,1,0,0.0,0,10,1,7,YES
36,0,0.0,0,0,0.0,0,0,0.0,0,0,0,0,NO
116,5,1.0,1,5,1.0,1,0,0.0,0,5,0,5,YES
187,512,39.38461538461539,86,98,7.538461538461538,15,414,31.846153846153847,71,13,0,9,YES
48,0,0.0,0,0,0.0,0,0,0.0,0,0,0,0,NO
32,0,0.0,0,0,0.0,0,0,0.0,0,0,0,0,NO
34,0,0.0,0,0,0.0,0,0,0.0,0,0,0,0,NO
26,0,0.0,0,0,0.0,0,0,0.0,0,0,0,0,NO
51,4,4.0,4,3,3.0,3,1,1.0,1,1,0,1,NO
31,0,0.0,0,0,0.0,0,0,0.0,0,0,0,0,NO
112,20,20.0,20,6,6.0,6,14,14.0,14,1,0,1,NO
26,0,0.0,0,0,0.0,0,0,0.0,0,0,0,0,NO
30,6,6.0,6,1,1.0,1,5,5.0,5,1,0,1,NO
40,0,0.0,0,0,0.0,0,0,0.0,0,0,0,0,NO
60,21,2.1,3,20,2.0,3,1,0.1,1,10,1,8,YES
49,18,18.0,18,5,5.0,5,13,13.0,13,1,0,1,NO
58,16,2.0,2,16,2.0,2,0,0.0,0,8,1,7,YES
37,0,0.0,0,0,0.0,0,0,0.0,0,0,0,0,NO
287,42,8.4,18,30,6.0,18,12,2.4,6,5,0,4,YES
99,53,13.25,23,44,11.0,22,15,3.75,11,4,0,1,NO
57,0,0.0,0,0,0.0,0,0,0.0,0,0,0,0,NO
31,0,0.0,0,0,0.0,0,0,0.0,0,0,0,0,NO
84,17,17.0,17,3,3.0,3,14,14.0,14,1,0,1,NO
41,0,0.0,0,0,0.0,0,0,0.0,0,0,0,0,NO
28,0,0.0,0,0,0.0,0,0,0.0,0,0,0,0,NO
34,0,0.0,0,0,0.0,0,0,0.0,0,0,0,0,NO
26,0,0.0,0,0,0.0,0,0,0.0,0,0,0,0,NO
79,316,79.0,79,0,0.0,0,316,79.0,79,4,0,3,YES
60,240,60.0,60,0,0.0,0,240,60.0,60,4,0,3,YES
109,369,41.0,109,8,0.8888888888888888,4,361,40.111111111111114,109,9,0,6,YES
133,378,42.0,133,7,0.7777777777777778,1,371,41.22222222222222,133,9,0,6,YES
121,348,38.666666666666664,121,1,0.1111111111111111,1,347,38.55555555555556,121,9,0,6,YES
131,527,58.55555555555556,131,20,2.2222222222222223,3,507,56.333333333333336,131,9,0,6,NO
163,657,73.0,163,1,0.1111111111111111,1,656,72.88888888888889,163,9,0,6,YES
65,221,24.555555555555557,65,1,0.1111111111111111,1,220,24.444444444444443,65,9,0,6,NO
53,181,22.625,53,0,0.0,0,181,22.625,53,8,0,6,NO
37,134,16.75,37,0,0.0,0,134,16.75,37,8,0,6,NO
76,232,29.0,76,0,0.0,0,232,29.0,76,8,0,6,YES
70,240,30.0,70,0,0.0,0,240,30.0,70,8,0,6,NO
43,113,14.125,43,12,1.5,2,101,12.625,43,8,0,6,YES
29,99,12.375,29,6,0.75,1,93,11.625,29,8,0,6,NO
24,63,7.875,24,0,0.0,0,63,7.875,24,8,0,6,NO
41,164,20.5,41,12,1.5,2,152,19.0,41,8,0,6,YES
137,680,68.0,137,7,0.7,7,673,67.3,137,10,0,6,YES
95,464,46.4,95,6,0.6,1,458,45.8,95,10,0,6,YES
96,466,46.6,96,1,0.1,1,465,46.5,96,10,0,6,YES
56,296,29.6,57,2,0.2,2,294,29.4,57,10,0,6,NO
40,179,17.9,40,1,0.1,1,178,17.8,40,10,0,6,YES
350,1218,135.33333333333334,350,364,40.44444444444444,115,1078,119.77777777777777,350,9,0,6,YES
112,342,38.0,112,38,4.222222222222222,6,304,33.77777777777778,112,9,0,6,YES
71,223,24.77777777777778,71,134,14.88888888888889,41,183,20.333333333333332,71,9,0,6,NO
93,307,34.111111111111114,93,111,12.333333333333334,38,214,23.77777777777778,93,9,0,6,NO
381,1333,148.11111111111111,381,428,47.55555555555556,136,1107,123.0,381,9,0,6,YES
115,345,38.333333333333336,115,38,4.222222222222222,6,307,34.111111111111114,115,9,0,6,YES
69,224,24.88888888888889,69,119,13.222222222222221,36,163,18.11111111111111,69,9,0,6,NO
98,327,36.333333333333336,98,108,12.0,37,221,24.555555555555557,98,9,0,6,NO
136,1116,124.0,136,28,3.111111111111111,28,1088,120.88888888888889,136,9,0,7,YES
59,477,53.0,59,5,0.5555555555555556,5,472,52.44444444444444,59,9,0,7,NO
30,242,26.88888888888889,30,2,0.2222222222222222,2,240,26.666666666666668,30,9,0,7,NO
42,340,37.77777777777778,42,4,0.4444444444444444,4,336,37.333333333333336,42,9,0,7,YES
182,1474,163.77777777777777,182,18,2.0,18,1456,161.77777777777777,182,9,0,7,YES
160,1299,144.33333333333334,160,19,2.111111111111111,19,1280,142.22222222222223,160,9,0,7,YES
32,259,28.77777777777778,32,3,0.3333333333333333,3,256,28.444444444444443,32,9,0,7,YES
24,195,21.666666666666668,24,3,0.3333333333333333,3,192,21.333333333333332,24,9,0,7,NO
50,403,44.77777777777778,50,3,0.3333333333333333,3,400,44.44444444444444,50,9,0,7,NO
50,413,45.888888888888886,50,13,1.4444444444444444,13,400,44.44444444444444,50,9,0,7,NO
63,507,56.333333333333336,63,3,0.3333333333333333,3,504,56.0,63,9,0,7,NO
116,931,103.44444444444444,116,3,0.3333333333333333,3,928,103.11111111111111,116,9,0,7,NO
182,1469,163.22222222222223,182,13,1.4444444444444444,13,1456,161.77777777777777,182,9,0,7,NO
69,555,61.666666666666664,69,3,0.3333333333333333,3,552,61.333333333333336,69,9,0,7,NO
27,219,24.333333333333332,27,3,0.3333333333333333,3,216,24.0,27,9,0,7,NO
67,536,59.55555555555556,67,0,0.0,0,536,59.55555555555556,67,9,0,7,YES
44,353,39.22222222222222,44,1,0.1111111111111111,1,352,39.111111111111114,44,9,0,7,YES
33,264,29.333333333333332,33,0,0.0,0,264,29.333333333333332,33,9,0,7,YES
72,0,0.0,0,0,0.0,0,0,0.0,0,0,0,0,NO
89,89,89.0,89,0,0.0,0,89,89.0,89,1,0,1,NO
304,304,304.0,304,0,0.0,0,304,304.0,304,1,0,1,NO
1941,3930,33.58974358974359,394,1306,11.162393162393162,254,2718,23.23076923076923,321,117,5,24,YES
36,0,0.0,0,0,0.0,0,0,0.0,0,0,0,0,YES
32,0,0.0,0,0,0.0,0,0,0.0,0,0,0,0,YES
49,0,0.0,0,0,0.0,0,0,0.0,0,0,0,0,YES
27,0,0.0,0,0,0.0,0,0,0.0,0,0,0,0,NO
83,332,83.0,83,0,0.0,0,332,83.0,83,4,0,4,NO
484,277,23.083333333333332,55,72,6.0,33,207,17.25,33,12,0,9,YES
119,0,0.0,0,0,0.0,0,0,0.0,0,0,0,0,NO
153,0,0.0,0,0,0.0,0,0,0.0,0,0,0,0,NO
51,0,0.0,0,0,0.0,0,0,0.0,0,0,0,0,NO
51,0,0.0,0,0,0.0,0,0,0.0,0,0,0,0,NO
56,521,52.1,56,0,0.0,0,521,52.1,56,10,1,9,YES
106,971,97.1,106,0,0.0,0,971,97.1,106,10,1,9,YES
108,6,2.0,2,6,2.0,2,0,0.0,0,3,0,3,NO
46,0,0.0,0,0,0.0,0,0,0.0,0,0,0,0,NO
53,0,0.0,0,0,0.0,0,0,0.0,0,0,0,0,NO
447,34,2.8333333333333335,14,23,1.9166666666666667,3,11,0.9166666666666666,11,12,0,8,NO
382,18,3.0,7,18,3.0,7,0,0.0,0,6,0,6,NO
30,0,0.0,0,0,0.0,0,0,0.0,0,0,0,0,NO
22,0,0.0,0,0,0.0,0,0,0.0,0,0,0,0,NO
114,6,6.0,6,0,0.0,0,6,6.0,6,1,0,1,YES
261,64,6.4,19,28,2.8,9,44,4.4,10,10,0,9,YES
75,8,4.0,4,8,4.0,4,0,0.0,0,2,0,2,NO
93,0,0.0,0,0,0.0,0,0,0.0,0,0,0,0,NO
52,4,4.0,4,1,1.0,1,3,3.0,3,1,0,1,NO
393,43,3.5833333333333335,16,40,3.3333333333333335,6,17,1.4166666666666667,10,12,0,8,NO
59,0,0.0,0,0,0.0,0,0,0.0,0,0,0,0,NO
124,4,4.0,4,4,4.0,4,0,0.0,0,1,0,1,YES
405,111,15.857142857142858,105,50,7.142857142857143,44,61,8.714285714285714,61,7,0,5,NO
1158,2993,176.05882352941177,983,1306,76.82352941176471,101,1687,99.23529411764706,983,17,0,11,NO
405,111,15.857142857142858,105,50,7.142857142857143,44,61,8.714285714285714,61,7,0,5,YES
513,138,19.714285714285715,132,68,9.714285714285714,62,70,10.0,70,7,0,5,NO
703,2822,282.2,704,6,0.6,1,2816,281.6,704,10,0,7,NO
1389,2670,166.875,585,2408,150.5,323,262,16.375,262,16,0,11,NO
769,2072,109.05263157894737,352,1469,77.3157894736842,197,603,31.736842105263158,155,19,0,13,YES
767,1148,67.52941176470588,768,385,22.647058823529413,28,773,45.470588235294116,768,17,0,11,YES
901,3614,361.4,902,6,0.6,1,3608,360.8,902,10,0,7,NO
751,3014,301.4,752,6,0.6,1,3008,300.8,752,10,0,7,NO
851,283,40.42857142857143,277,155,22.142857142857142,149,128,18.285714285714285,128,7,0,5,NO
462,73,73.0,73,13,13.0,13,60,60.0,60,1,0,1,NO
2193,9539,867.1818181818181,2194,341,31.0,115,9198,836.1818181818181,2194,11,0,8,NO
62,248,62.0,62,0,0.0,0,248,62.0,62,4,0,4,NO
457,424,24.941176470588236,144,356,20.941176470588236,76,68,4.0,68,17,0,11,YES
405,111,15.857142857142858,105,50,7.142857142857143,44,61,8.714285714285714,61,7,0,5,NO
506,131,18.714285714285715,125,66,9.428571428571429,60,65,9.285714285714286,65,7,0,5,NO
505,3550,236.66666666666666,506,8,0.5333333333333333,1,3542,236.13333333333333,506,15,0,8,NO
1328,395,56.42857142857143,389,146,20.857142857142858,140,249,35.57142857142857,249,7,0,5,YES
2935,900,128.57142857142858,894,311,44.42857142857143,305,589,84.14285714285714,589,7,0,5,YES
713,200,28.571428571428573,194,112,16.0,106,88,12.571428571428571,88,7,0,5,NO
525,2110,211.0,526,6,0.6,1,2104,210.4,526,10,0,7,NO
498,136,19.428571428571427,130,74,10.571428571428571,68,62,8.857142857142858,62,7,0,5,NO
387,62,62.0,62,10,10.0,10,52,52.0,52,1,0,1,NO
914,1259,78.6875,404,1040,65.0,185,219,13.6875,219,16,0,11,NO
921,240,34.285714285714285,234,143,20.428571428571427,137,97,13.857142857142858,97,7,0,5,NO
421,428,61.142857142857146,422,6,0.8571428571428571,1,422,60.285714285714285,422,7,0,5,NO
506,131,18.714285714285715,125,66,9.428571428571429,60,65,9.285714285714286,65,7,0,5,NO
800,142,142.0,142,21,21.0,21,121,121.0,121,1,0,1,NO
405,111,15.857142857142858,105,50,7.142857142857143,44,61,8.714285714285714,61,7,0,5,NO
560,166,23.714285714285715,160,85,12.142857142857142,79,81,11.571428571428571,81,7,0,5,NO
631,95,95.0,95,13,13.0,13,82,82.0,82,1,0,1,NO
406,129,18.428571428571427,123,59,8.428571428571429,53,70,10.0,70,7,0,5,NO
457,782,46.0,458,324,19.058823529411764,23,458,26.941176470588236,458,17,0,11,YES
470,823,48.411764705882355,471,352,20.705882352941178,25,471,27.705882352941178,471,17,0,11,YES
405,412,58.857142857142854,406,6,0.8571428571428571,1,406,58.0,406,7,0,5,YES
754,1023,60.1764705882353,755,268,15.764705882352942,19,755,44.411764705882355,755,17,0,11,YES
675,1293,76.05882352941177,561,272,16.0,20,1021,60.05882352941177,561,17,0,11,YES
470,823,48.411764705882355,471,352,20.705882352941178,25,471,27.705882352941178,471,17,0,11,YES
474,2977,229.0,475,127,9.76923076923077,25,2850,219.23076923076923,475,13,0,9,NO
835,5022,418.5,836,6,0.5,1,5016,418.0,836,12,0,9,NO
65,390,65.0,65,0,0.0,0,390,65.0,65,6,0,6,NO
29093,43526,1612.0740740740741,8681,2305,85.37037037037037,2249,41221,1526.7037037037037,6432,27,0,14,YES
795,7173,398.5,796,9,0.5,1,7164,398.0,796,18,0,11,NO
555,764,44.94117647058823,556,208,12.235294117647058,17,556,32.705882352941174,556,17,0,11,NO
405,111,15.857142857142858,105,50,7.142857142857143,44,61,8.714285714285714,61,7,0,5,NO
299,91,13.0,85,33,4.714285714285714,27,58,8.285714285714286,58,7,0,5,NO
65,65,65.0,65,0,0.0,0,65,65.0,65,1,0,1,NO
74,222,74.0,74,0,0.0,0,222,74.0,74,3,0,3,NO
630,1893,631.0,631,0,0.0,0,1893,631.0,631,3,0,3,NO
663,503,29.58823529411765,223,405,23.823529411764707,125,98,5.764705882352941,98,17,0,11,NO
515,148,21.142857142857142,142,66,9.428571428571429,60,82,11.714285714285714,82,7,0,5,NO
387,1548,387.0,387,0,0.0,0,1548,387.0,387,4,0,4,NO
406,1634,163.4,407,6,0.6,1,1628,162.8,407,10,0,7,NO
513,138,19.714285714285715,132,68,9.714285714285714,62,70,10.0,70,7,0,5,NO
916,1619,101.1875,379,1475,92.1875,235,144,9.0,144,16,0,11,NO
513,138,19.714285714285715,132,68,9.714285714285714,62,70,10.0,70,7,0,5,NO
1381,3029,159.42105263157896,1382,621,32.68421052631579,82,2408,126.73684210526316,1382,19,0,11,NO
802,274,39.142857142857146,268,148,21.142857142857142,142,126,18.0,126,7,0,5,NO
553,168,24.0,162,93,13.285714285714286,87,75,10.714285714285714,75,7,0,5,NO
532,150,21.428571428571427,144,70,10.0,64,80,11.428571428571429,80,7,0,5,YES
1445,2762,162.47058823529412,1288,684,40.23529411764706,59,2078,122.23529411764706,1288,17,0,11,YES
1066,1124,112.4,305,148,14.8,119,976,97.6,186,10,0,8,YES
515,522,74.57142857142857,516,6,0.8571428571428571,1,516,73.71428571428571,516,7,0,5,YES
387,387,387.0,387,0,0.0,0,387,387.0,387,1,0,1,NO
2143,6634,221.13333333333333,653,1421,47.36666666666667,228,5213,173.76666666666668,594,30,0,14,YES
62,2,2.0,2,1,1.0,1,1,1.0,1,1,0,1,NO
2596,11377,669.2352941176471,2003,185,10.882352941176471,53,11192,658.3529411764706,2003,17,0,8,NO
1093,4713,428.45454545454544,1094,337,30.636363636363637,111,4376,397.8181818181818,1094,11,0,8,NO
68,68,68.0,68,0,0.0,0,68,68.0,68,1,0,1,NO
1900,4228,192.1818181818182,600,261,11.863636363636363,191,3967,180.3181818181818,594,22,0,11,YES
604,3027,432.42857142857144,605,2,0.2857142857142857,1,3025,432.14285714285717,605,7,0,4,NO
43,0,0.0,0,0,0.0,0,0,0.0,0,0,0,0,NO
107,319,29.0,107,12,1.0909090909090908,2,307,27.90909090909091,107,11,0,5,NO
61,0,0.0,0,0,0.0,0,0,0.0,0,0,0,0,NO
38,0,0.0,0,0,0.0,0,0,0.0,0,0,0,0,NO
32,0,0.0,0,0,0.0,0,0,0.0,0,0,0,0,NO
32,0,0.0,0,0,0.0,0,0,0.0,0,0,0,0,NO
32,0,0.0,0,0,0.0,0,0,0.0,0,0,0,0,NO
35,0,0.0,0,0,0.0,0,0,0.0,0,0,0,0,NO
30,0,0.0,0,0,0.0,0,0,0.0,0,0,0,0,NO
30,0,0.0,0,0,0.0,0,0,0.0,0,0,0,0,NO
27,108,27.0,27,0,0.0,0,108,27.0,27,4,0,4,NO
52,208,52.0,52,0,0.0,0,208,52.0,52,4,0,4,NO
49,100,25.0,49,0,0.0,0,100,25.0,49,4,0,4,NO
49,16,16.0,16,0,0.0,0,16,16.0,16,1,0,1,NO
59,0,0.0,0,0,0.0,0,0,0.0,0,0,0,0,NO
53,0,0.0,0,0,0.0,0,0,0.0,0,0,0,0,NO
57,0,0.0,0,0,0.0,0,0,0.0,0,0,0,0,NO
517,2295,54.642857142857146,433,2931,69.78571428571429,303,1230,29.285714285714285,138,42,1,14,YES
117,85,6.538461538461538,29,144,11.076923076923077,24,69,5.3076923076923075,8,13,1,7,YES
71,10,10.0,10,5,5.0,5,5,5.0,5,1,0,1,YES
120,36,4.0,4,180,20.0,20,144,16.0,16,9,1,6,YES
58,522,58.0,58,0,0.0,0,522,58.0,58,9,1,6,YES
145,2,2.0,2,2,2.0,2,0,0.0,0,1,0,1,YES
43,0,0.0,0,0,0.0,0,0,0.0,0,0,0,0,YES
52,7,7.0,7,3,3.0,3,4,4.0,4,1,0,1,NO
99,22,22.0,22,5,5.0,5,17,17.0,17,1,0,1,YES
166,7,7.0,7,15,15.0,15,8,8.0,8,1,0,1,YES
31,0,0.0,0,0,0.0,0,0,0.0,0,0,0,0,YES
165,101,101.0,101,108,108.0,108,7,7.0,7,1,0,1,YES
31,6,6.0,6,7,7.0,7,1,1.0,1,1,0,1,YES
157,56,5.6,20,51,5.1,17,7,0.7,3,10,1,8,YES
83,1,1.0,1,1,1.0,1,0,0.0,0,1,0,1,YES
155,10,10.0,10,9,9.0,9,1,1.0,1,1,0,1,YES
74,1,1.0,1,0,0.0,0,1,1.0,1,1,0,1,YES
337,244,81.33333333333333,108,143,47.666666666666664,74,101,33.666666666666664,41,3,0,3,YES
41,0,0.0,0,0,0.0,0,0,0.0,0,0,0,0,NO
46,494,44.90909090909091,48,6,0.5454545454545454,3,488,44.36363636363637,46,11,1,8,YES
53,31,2.8181818181818183,7,26,2.3636363636363638,4,7,0.6363636363636364,3,11,1,8,YES
66,16,16.0,16,8,8.0,8,8,8.0,8,1,0,1,YES
57,0,0.0,0,0,0.0,0,0,0.0,0,0,0,0,YES
58,424,47.111111111111114,58,1,0.1111111111111111,1,423,47.0,58,9,1,7,YES
115,808,62.15384615384615,105,16,1.2307692307692308,4,792,60.92307692307692,105,13,1,8,YES
81,324,81.0,81,0,0.0,0,324,81.0,81,4,0,3,YES
119,476,119.0,119,0,0.0,0,476,119.0,119,4,0,3,NO
59,430,53.75,59,0,0.0,0,430,53.75,59,8,1,7,YES
72,0,0.0,0,0,0.0,0,0,0.0,0,0,0,0,YES
64,5,1.0,1,5,1.0,1,0,0.0,0,5,0,5,NO
170,105,15.0,15,0,0.0,0,105,15.0,15,7,0,6,NO
34,0,0.0,0,0,0.0,0,0,0.0,0,0,0,0,NO
38,0,0.0,0,0,0.0,0,0,0.0,0,0,0,0,NO
41,0,0.0,0,0,0.0,0,0,0.0,0,0,0,0,NO
23,0,0.0,0,0,0.0,0,0,0.0,0,0,0,0,NO
22,0,0.0,0,0,0.0,0,0,0.0,0,0,0,0,NO
60,0,0.0,0,0,0.0,0,0,0.0,0,0,0,0,NO
24,0,0.0,0,0,0.0,0,0,0.0,0,0,0,0,NO
22,0,0.0,0,0,0.0,0,0,0.0,0,0,0,0,NO
55,0,0.0,0,0,0.0,0,0,0.0,0,0,0,0,NO
45,0,0.0,0,0,0.0,0,0,0.0,0,0,0,0,NO
50,0,0.0,0,0,0.0,0,0,0.0,0,0,0,0,NO
38,0,0.0,0,0,0.0,0,0,0.0,0,0,0,0,NO
31,0,0.0,0,0,0.0,0,0,0.0,0,0,0,0,NO
30,0,0.0,0,0,0.0,0,0,0.0,0,0,0,0,NO
31,0,0.0,0,0,0.0,0,0,0.0,0,0,0,0,NO
38,1,1.0,1,1,1.0,1,0,0.0,0,1,0,1,NO
31,2,2.0,2,3,3.0,3,1,1.0,1,1,0,1,NO
32,0,0.0,0,0,0.0,0,0,0.0,0,0,0,0,NO
211,422,211.0,211,0,0.0,0,422,211.0,211,2,0,2,NO
259,518,259.0,259,0,0.0,0,518,259.0,259,2,0,2,NO
27,54,27.0,27,0,0.0,0,54,27.0,27,2,0,2,NO
112,224,112.0,112,0,0.0,0,224,112.0,112,2,0,2,NO
109,218,109.0,109,0,0.0,0,218,109.0,109,2,0,2,NO
165,330,165.0,165,0,0.0,0,330,165.0,165,2,0,2,NO
80,0,0.0,0,0,0.0,0,0,0.0,0,0,0,0,YES
82,0,0.0,0,0,0.0,0,0,0.0,0,0,0,0,NO
202,0,0.0,0,0,0.0,0,0,0.0,0,0,0,0,NO
40,0,0.0,0,0,0.0,0,0,0.0,0,0,0,0,NO
185,0,0.0,0,0,0.0,0,0,0.0,0,0,0,0,YES
51,0,0.0,0,0,0.0,0,0,0.0,0,0,0,0,YES
95,475,95.0,95,0,0.0,0,475,95.0,95,5,0,5,YES
50,250,50.0,50,0,0.0,0,250,50.0,50,5,0,5,YES
35,192,32.0,35,0,0.0,0,192,32.0,35,6,1,6,YES
31,0,0.0,0,0,0.0,0,0,0.0,0,0,0,0,NO
59,557,55.7,60,0,0.0,0,557,55.7,60,10,1,9,YES
28,0,0.0,0,0,0.0,0,0,0.0,0,0,0,0,NO
101,894,59.6,93,0,0.0,0,894,59.6,93,15,1,12,YES
25,0,0.0,0,0,0.0,0,0,0.0,0,0,0,0,NO
25,0,0.0,0,0,0.0,0,0,0.0,0,0,0,0,NO
33,0,0.0,0,0,0.0,0,0,0.0,0,0,0,0,NO
480,360,27.692307692307693,44,152,11.692307692307692,45,324,24.923076923076923,42,13,0,11,YES
54,0,0.0,0,0,0.0,0,0,0.0,0,0,0,0,NO
39,0,0.0,0,0,0.0,0,0,0.0,0,0,0,0,YES
40,0,0.0,0,0,0.0,0,0,0.0,0,0,0,0,YES
45,0,0.0,0,0,0.0,0,0,0.0,0,0,0,0,NO
58,1,1.0,1,1,1.0,1,0,0.0,0,1,0,1,NO
110,0,0.0,0,0,0.0,0,0,0.0,0,0,0,0,NO
128,260,52.0,52,65,13.0,13,195,39.0,39,5,0,5,NO
70,79,9.875,14,14,1.75,3,65,8.125,13,8,0,7,NO
444,1840,184.0,317,65,6.5,13,1775,177.5,304,10,0,8,NO
77,101,20.2,25,1,0.2,1,100,20.0,25,5,0,4,NO
219,0,0.0,0,0,0.0,0,0,0.0,0,0,0,0,YES
125,0,0.0,0,0,0.0,0,0,0.0,0,0,0,0,YES
346,0,0.0,0,0,0.0,0,0,0.0,0,0,0,0,YES
98,0,0.0,0,0,0.0,0,0,0.0,0,0,0,0,YES
343,0,0.0,0,0,0.0,0,0,0.0,0,0,0,0,YES
296,0,0.0,0,0,0.0,0,0,0.0,0,0,0,0,YES
54,270,54.0,54,0,0.0,0,270,54.0,54,5,0,5,NO
575,2847,406.7142857142857,575,0,0.0,0,2847,406.7142857142857,575,7,0,7,NO
167,885,88.5,149,50,5.0,10,835,83.5,149,10,0,8,YES
133,665,133.0,133,0,0.0,0,665,133.0,133,5,0,5,NO
37,185,37.0,37,0,0.0,0,185,37.0,37,5,0,5,NO
480,2434,304.25,480,34,4.25,16,2400,300.0,480,8,0,5,YES
47,0,0.0,0,1,1.0,1,1,1.0,1,1,0,1,YES
284,63,31.5,59,4,2.0,4,59,29.5,59,2,0,2,YES
96,14,14.0,14,5,5.0,5,9,9.0,9,1,0,1,YES
43,1,1.0,1,1,1.0,1,0,0.0,0,1,0,1,YES
47,2,2.0,2,2,2.0,2,0,0.0,0,1,0,1,YES
55,0,0.0,0,0,0.0,0,0,0.0,0,0,0,0,YES
41,0,0.0,0,0,0.0,0,0,0.0,0,0,0,0,YES
42,0,0.0,0,0,0.0,0,0,0.0,0,0,0,0,YES
50,0,0.0,0,0,0.0,0,0,0.0,0,0,0,0,YES
41,1,1.0,1,1,1.0,1,0,0.0,0,1,0,1,YES
61,3,3.0,3,1,1.0,1,2,2.0,2,1,0,1,YES
45,1,1.0,1,1,1.0,1,0,0.0,0,1,0,1,YES
149,76,9.5,27,1,0.125,1,75,9.375,26,8,0,5,YES
182,83,6.916666666666667,18,20,1.6666666666666667,8,63,5.25,10,12,1,10,YES
94,18,1.8,5,18,1.8,5,0,0.0,0,10,1,7,YES
163,9,4.5,7,4,2.0,3,5,2.5,4,2,0,2,YES
56,0,0.0,0,0,0.0,0,0,0.0,0,0,0,0,YES
77,2,2.0,2,2,2.0,2,0,0.0,0,1,0,1,YES
120,9,9.0,9,3,3.0,3,6,6.0,6,1,0,1,YES
77,0,0.0,0,0,0.0,0,0,0.0,0,0,0,0,YES
80,0,0.0,0,0,0.0,0,0,0.0,0,0,0,0,YES
63,70,11.666666666666666,17,2,0.3333333333333333,1,68,11.333333333333334,17,6,0,6,YES
175,91,7.583333333333333,19,19,1.5833333333333333,4,72,6.0,18,12,0,9,YES
52,2,0.4,2,22,4.4,5,20,4.0,5,5,0,5,YES
172,240,20.0,171,15,1.25,3,225,18.75,171,12,0,9,NO
52,1,0.2,1,21,4.2,5,20,4.0,5,5,0,5,YES
167,123,9.461538461538462,38,48,3.6923076923076925,17,99,7.615384615384615,21,13,0,10,YES
64,7,1.0,3,29,4.142857142857143,5,22,3.142857142857143,5,7,0,7,YES
110,0,0.0,0,0,0.0,0,0,0.0,0,0,0,0,NO
70,3,3.0,3,3,3.0,3,0,0.0,0,1,0,1,YES
131,19,19.0,19,2,2.0,2,17,17.0,17,1,0,1,NO
277,6,3.0,3,14,7.0,7,8,4.0,4,2,0,2,YES
108,0,0.0,0,0,0.0,0,0,0.0,0,0,0,0,YES
44,0,0.0,0,0,0.0,0,0,0.0,0,0,0,0,YES
104,0,0.0,0,0,0.0,0,0,0.0,0,0,0,0,YES
210,33,3.6666666666666665,9,21,2.3333333333333335,5,12,1.3333333333333333,4,9,1,8,YES
40,377,37.7,40,3,0.3,3,374,37.4,40,10,2,9,YES
96,37,4.625,23,15,1.875,15,22,2.75,8,8,0,5,YES
90,27,3.0,3,20,2.2222222222222223,3,7,0.7777777777777778,1,9,0,8,YES
64,0,0.0,0,0,0.0,0,0,0.0,0,0,0,0,NO
58,4,4.0,4,7,7.0,7,3,3.0,3,1,0,1,NO
65,4,4.0,4,3,3.0,3,1,1.0,1,1,0,1,NO
64,64,64.0,64,0,0.0,0,64,64.0,64,1,0,1,YES
64,3,3.0,3,7,7.0,7,4,4.0,4,1,0,1,NO
57,57,57.0,57,0,0.0,0,57,57.0,57,1,0,1,YES
23,0,0.0,0,0,0.0,0,0,0.0,0,0,0,0,NO
40,0,0.0,0,0,0.0,0,0,0.0,0,0,0,0,NO
25,0,0.0,0,0,0.0,0,0,0.0,0,0,0,0,NO
26,0,0.0,0,0,0.0,0,0,0.0,0,0,0,0,NO
59,0,0.0,0,0,0.0,0,0,0.0,0,0,0,0,NO
60,0,0.0,0,0,0.0,0,0,0.0,0,0,0,0,NO
51,0,0.0,0,0,0.0,0,0,0.0,0,0,0,0,NO
58,0,0.0,0,0,0.0,0,0,0.0,0,0,0,0,NO
61,0,0.0,0,0,0.0,0,0,0.0,0,0,0,0,NO
35,1,1.0,1,1,1.0,1,0,0.0,0,1,0,1,NO
224,9,3.0,3,9,3.0,3,0,0.0,0,3,0,3,NO
52,52,52.0,52,0,0.0,0,52,52.0,52,1,0,1,NO
32,0,0.0,0,0,0.0,0,0,0.0,0,0,0,0,NO
32,0,0.0,0,0,0.0,0,0,0.0,0,0,0,0,NO
32,0,0.0,0,0,0.0,0,0,0.0,0,0,0,0,NO
32,0,0.0,0,0,0.0,0,0,0.0,0,0,0,0,NO
23,0,0.0,0,0,0.0,0,0,0.0,0,0,0,0,NO
24,0,0.0,0,0,0.0,0,0,0.0,0,0,0,0,NO
105,4,4.0,4,0,0.0,0,4,4.0,4,1,0,1,YES
31,20,2.857142857142857,4,10,1.4285714285714286,2,10,1.4285714285714286,2,7,0,7,NO
34,0,0.0,0,0,0.0,0,0,0.0,0,0,0,0,YES
28,0,0.0,0,0,0.0,0,0,0.0,0,0,0,0,YES
31,0,0.0,0,0,0.0,0,0,0.0,0,0,0,0,NO
38,0,0.0,0,0,0.0,0,0,0.0,0,0,0,0,YES
32,0,0.0,0,0,0.0,0,0,0.0,0,0,0,0,YES
28,0,0.0,0,0,0.0,0,0,0.0,0,0,0,0,YES
41,0,0.0,0,0,0.0,0,0,0.0,0,0,0,0,YES
276,87,8.7,18,21,2.1,9,68,6.8,16,10,0,8,YES
41,0,0.0,0,0,0.0,0,0,0.0,0,0,0,0,NO
139,25,5.0,5,0,0.0,0,25,5.0,5,5,0,5,YES
29,0,0.0,0,0,0.0,0,0,0.0,0,0,0,0,NO
22,0,0.0,0,0,0.0,0,0,0.0,0,0,0,0,NO
25,0,0.0,0,0,0.0,0,0,0.0,0,0,0,0,NO
24,0,0.0,0,0,0.0,0,0,0.0,0,0,0,0,NO
28,0,0.0,0,0,0.0,0,0,0.0,0,0,0,0,NO
30,0,0.0,0,0,0.0,0,0,0.0,0,0,0,0,NO
199,9,3.0,3,6,2.0,2,3,1.0,1,3,0,3,NO
84,4,2.0,2,4,2.0,2,0,0.0,0,2,0,2,YES
22,0,0.0,0,0,0.0,0,0,0.0,0,0,0,0,NO
31,0,0.0,0,0,0.0,0,0,0.0,0,0,0,0,NO
32,0,0.0,0,0,0.0,0,0,0.0,0,0,0,0,NO
225,2,1.0,1,2,1.0,1,0,0.0,0,2,0,2,YES
403,152,9.5,24,65,4.0625,18,89,5.5625,14,16,0,12,YES
385,368,40.888888888888886,110,147,16.333333333333332,39,221,24.555555555555557,71,9,0,6,YES
106,0,0.0,0,0,0.0,0,0,0.0,0,0,0,0,NO
25,0,0.0,0,0,0.0,0,0,0.0,0,0,0,0,NO
52,0,0.0,0,0,0.0,0,0,0.0,0,0,0,0,NO
52,0,0.0,0,0,0.0,0,0,0.0,0,0,0,0,NO
48,257,42.833333333333336,48,0,0.0,0,257,42.833333333333336,48,6,1,6,YES
72,0,0.0,0,0,0.0,0,0,0.0,0,0,0,0,NO
39,0,0.0,0,0,0.0,0,0,0.0,0,0,0,0,NO
48,0,0.0,0,0,0.0,0,0,0.0,0,0,0,0,NO
42,0,0.0,0,0,0.0,0,0,0.0,0,0,0,0,NO
87,0,0.0,0,0,0.0,0,0,0.0,0,0,0,0,YES
55,0,0.0,0,0,0.0,0,0,0.0,0,0,0,0,NO
57,0,0.0,0,0,0.0,0,0,0.0,0,0,0,0,NO
100,0,0.0,0,0,0.0,0,0,0.0,0,0,0,0,NO
42,0,0.0,0,0,0.0,0,0,0.0,0,0,0,0,NO
179,0,0.0,0,0,0.0,0,0,0.0,0,0,0,0,NO
95,0,0.0,0,0,0.0,0,0,0.0,0,0,0,0,YES
42,0,0.0,0,0,0.0,0,0,0.0,0,0,0,0,NO
61,0,0.0,0,0,0.0,0,0,0.0,0,0,0,0,NO
24,0,0.0,0,0,0.0,0,0,0.0,0,0,0,0,NO
61,0,0.0,0,0,0.0,0,0,0.0,0,0,0,0,NO
180,8,4.0,4,10,5.0,5,2,1.0,1,2,0,2,NO
38,0,0.0,0,0,0.0,0,0,0.0,0,0,0,0,NO
57,0,0.0,0,0,0.0,0,0,0.0,0,0,0,0,YES
51,0,0.0,0,0,0.0,0,0,0.0,0,0,0,0,NO
60,1,1.0,1,1,1.0,1,0,0.0,0,1,0,1,YES
50,0,0.0,0,0,0.0,0,0,0.0,0,0,0,0,NO
51,0,0.0,0,0,0.0,0,0,0.0,0,0,0,0,NO
186,15,1.6666666666666667,4,15,1.6666666666666667,4,0,0.0,0,9,0,8,NO
52,0,0.0,0,0,0.0,0,0,0.0,0,0,0,0,NO
49,0,0.0,0,0,0.0,0,0,0.0,0,0,0,0,NO
52,0,0.0,0,0,0.0,0,0,0.0,0,0,0,0,NO
37,0,0.0,0,0,0.0,0,0,0.0,0,0,0,0,YES
111,30,6.0,6,0,0.0,0,30,6.0,6,5,0,5,NO
63,0,0.0,0,0,0.0,0,0,0.0,0,0,0,0,NO
62,0,0.0,0,0,0.0,0,0,0.0,0,0,0,0,NO
139,0,0.0,0,0,0.0,0,0,0.0,0,0,0,0,NO
76,0,0.0,0,0,0.0,0,0,0.0,0,0,0,0,NO
60,0,0.0,0,0,0.0,0,0,0.0,0,0,0,0,NO
41,1,1.0,1,0,0.0,0,1,1.0,1,1,0,1,YES
31,0,0.0,0,0,0.0,0,0,0.0,0,0,0,0,NO
45,0,0.0,0,0,0.0,0,0,0.0,0,0,0,0,NO
85,0,0.0,0,0,0.0,0,0,0.0,0,0,0,0,NO
37,0,0.0,0,0,0.0,0,0,0.0,0,0,0,0,NO
27,243,27.0,27,0,0.0,0,243,27.0,27,9,0,5,NO
65,45,5.0,5,9,1.0,1,36,4.0,4,9,0,5,NO
86,0,0.0,0,0,0.0,0,0,0.0,0,0,0,0,NO
34,0,0.0,0,0,0.0,0,0,0.0,0,0,0,0,NO
83,4,2.0,2,4,2.0,2,0,0.0,0,2,0,2,NO
83,158,13.166666666666666,31,13,1.0833333333333333,2,145,12.083333333333334,29,12,0,10,NO
67,0,0.0,0,0,0.0,0,0,0.0,0,0,0,0,NO
62,0,0.0,0,0,0.0,0,0,0.0,0,0,0,0,NO
26,4,4.0,4,0,0.0,0,4,4.0,4,1,0,1,NO
32,23,1.9166666666666667,4,8,0.6666666666666666,1,15,1.25,3,12,0,10,NO
36,0,0.0,0,0,0.0,0,0,0.0,0,0,0,0,NO
33,0,0.0,0,0,0.0,0,0,0.0,0,0,0,0,NO
27,15,3.0,3,10,2.0,2,5,1.0,1,5,0,5,NO
44,0,0.0,0,0,0.0,0,0,0.0,0,0,0,0,NO
29,0,0.0,0,0,0.0,0,0,0.0,0,0,0,0,NO
29,0,0.0,0,0,0.0,0,0,0.0,0,0,0,0,NO
25,0,0.0,0,0,0.0,0,0,0.0,0,0,0,0,NO
184,133,66.5,131,2,1.0,2,131,65.5,131,2,0,2,NO
32,0,0.0,0,0,0.0,0,0,0.0,0,0,0,0,NO
53,0,0.0,0,0,0.0,0,0,0.0,0,0,0,0,NO
36,0,0.0,0,0,0.0,0,0,0.0,0,0,0,0,NO
22,0,0.0,0,0,0.0,0,0,0.0,0,0,0,0,NO
382,215,17.916666666666668,37,91,7.583333333333333,14,124,10.333333333333334,23,12,1,8,YES
33,0,0.0,0,0,0.0,0,0,0.0,0,0,0,0,NO
25,0,0.0,0,0,0.0,0,0,0.0,0,0,0,0,NO
28,0,0.0,0,0,0.0,0,0,0.0,0,0,0,0,NO
25,0,0.0,0,0,0.0,0,0,0.0,0,0,0,0,NO
25,0,0.0,0,0,0.0,0,0,0.0,0,0,0,0,NO
26,0,0.0,0,0,0.0,0,0,0.0,0,0,0,0,NO
50,0,0.0,0,0,0.0,0,0,0.0,0,0,0,0,YES
24,0,0.0,0,0,0.0,0,0,0.0,0,0,0,0,NO
25,0,0.0,0,0,0.0,0,0,0.0,0,0,0,0,NO
26,0,0.0,0,0,0.0,0,0,0.0,0,0,0,0,NO
31,0,0.0,0,0,0.0,0,0,0.0,0,0,0,0,NO
94,0,0.0,0,0,0.0,0,0,0.0,0,0,0,0,NO
61,0,0.0,0,0,0.0,0,0,0.0,0,0,0,0,NO
96,4,2.0,2,4,2.0,2,0,0.0,0,2,0,2,NO
217,0,0.0,0,0,0.0,0,0,0.0,0,0,0,0,NO
521,59,4.916666666666667,18,48,4.0,7,11,0.9166666666666666,11,12,0,8,NO
56,0,0.0,0,0,0.0,0,0,0.0,0,0,0,0,NO
69,0,0.0,0,0,0.0,0,0,0.0,0,0,0,0,NO
160,9,3.0,3,6,2.0,2,3,1.0,1,3,0,3,NO
142,0,0.0,0,0,0.0,0,0,0.0,0,0,0,0,NO
149,0,0.0,0,0,0.0,0,0,0.0,0,0,0,0,NO
47,0,0.0,0,0,0.0,0,0,0.0,0,0,0,0,YES
173,0,0.0,0,0,0.0,0,0,0.0,0,0,0,0,YES
117,133,19.0,19,14,2.0,2,119,17.0,17,7,0,5,NO
214,714,102.0,102,168,24.0,24,546,78.0,78,7,0,5,YES
98,0,0.0,0,0,0.0,0,0,0.0,0,0,0,0,NO
69,44,4.4,8,6,0.6,1,38,3.8,8,10,0,9,NO
356,33,4.714285714285714,6,13,1.8571428571428572,3,20,2.857142857142857,5,7,0,7,NO
37,0,0.0,0,0,0.0,0,0,0.0,0,0,0,0,NO
37,0,0.0,0,0,0.0,0,0,0.0,0,0,0,0,NO
54,0,0.0,0,0,0.0,0,0,0.0,0,0,0,0,NO
44,0,0.0,0,0,0.0,0,0,0.0,0,0,0,0,NO
35,0,0.0,0,0,0.0,0,0,0.0,0,0,0,0,NO
24,0,0.0,0,0,0.0,0,0,0.0,0,0,0,0,NO
65,1,1.0,1,1,1.0,1,0,0.0,0,1,0,1,YES
27,216,27.0,27,0,0.0,0,216,27.0,27,8,0,7,NO
424,2846,56.92,325,1609,32.18,230,1573,31.46,137,50,1,13,YES
67,134,67.0,67,0,0.0,0,134,67.0,67,2,0,2,YES
177,0,0.0,0,0,0.0,0,0,0.0,0,0,0,0,NO
59,0,0.0,0,0,0.0,0,0,0.0,0,0,0,0,NO
68,0,0.0,0,0,0.0,0,0,0.0,0,0,0,0,NO
156,0,0.0,0,0,0.0,0,0,0.0,0,0,0,0,NO
189,134,44.666666666666664,126,73,24.333333333333332,37,117,39.0,89,3,0,3,YES
253,6,6.0,6,2,2.0,2,4,4.0,4,1,0,1,NO
43,0,0.0,0,0,0.0,0,0,0.0,0,0,0,0,NO
43,0,0.0,0,0,0.0,0,0,0.0,0,0,0,0,NO
38,9,3.0,3,9,3.0,3,0,0.0,0,3,0,3,NO
121,584,44.92307692307692,72,195,15.0,20,389,29.923076923076923,62,13,0,9,YES
64,0,0.0,0,0,0.0,0,0,0.0,0,0,0,0,NO
128,72,8.0,8,36,4.0,4,36,4.0,4,9,0,8,NO
47,0,0.0,0,0,0.0,0,0,0.0,0,0,0,0,NO
210,170,11.333333333333334,25,44,2.933333333333333,5,126,8.4,21,15,0,10,NO
498,3,1.0,1,3,1.0,1,0,0.0,0,3,0,3,YES
74,13,1.8571428571428572,2,13,1.8571428571428572,2,0,0.0,0,7,0,6,YES
34,0,0.0,0,0,0.0,0,0,0.0,0,0,0,0,YES
58,0,0.0,0,0,0.0,0,0,0.0,0,0,0,0,NO
119,59,8.428571428571429,11,9,1.2857142857142858,2,50,7.142857142857143,10,7,0,5,NO
125,137,13.7,23,461,46.1,61,338,33.8,43,10,0,8,NO
132,188,26.857142857142858,41,111,15.857142857142858,21,83,11.857142857142858,20,7,0,6,YES
35,35,35.0,35,0,0.0,0,35,35.0,35,1,0,1,NO
763,1594,49.8125,229,740,23.125,129,858,26.8125,139,32,0,17,YES
131,131,131.0,131,0,0.0,0,131,131.0,131,1,0,1,NO
187,5,5.0,5,4,4.0,4,1,1.0,1,1,0,1,NO
51,0,0.0,0,0,0.0,0,0,0.0,0,0,0,0,NO
26,208,26.0,26,0,0.0,0,208,26.0,26,8,0,7,NO
58,472,52.44444444444444,59,0,0.0,0,472,52.44444444444444,59,9,0,7,NO
375,2,2.0,2,2,2.0,2,0,0.0,0,1,0,1,NO
53,0,0.0,0,0,0.0,0,0,0.0,0,0,0,0,YES
84,0,0.0,0,0,0.0,0,0,0.0,0,0,0,0,YES
628,2682,206.30769230769232,609,247,19.0,96,2435,187.30769230769232,609,13,1,7,YES
213,882,110.25,218,22,2.75,10,880,110.0,218,8,1,5,YES
175,700,175.0,175,0,0.0,0,700,175.0,175,4,0,4,NO
30,0,0.0,0,0,0.0,0,0,0.0,0,0,0,0,NO
377,1,1.0,1,1,1.0,1,0,0.0,0,1,0,1,NO
40,0,0.0,0,0,0.0,0,0,0.0,0,0,0,0,NO
822,96,12.0,22,29,3.625,6,67,8.375,16,8,0,7,YES
121,2,2.0,2,2,2.0,2,0,0.0,0,1,0,1,YES
183,0,0.0,0,0,0.0,0,0,0.0,0,0,0,0,NO
32,0,0.0,0,0,0.0,0,0,0.0,0,0,0,0,NO
32,0,0.0,0,0,0.0,0,0,0.0,0,0,0,0,NO
26,0,0.0,0,0,0.0,0,0,0.0,0,0,0,0,NO
174,0,0.0,0,0,0.0,0,0,0.0,0,0,0,0,NO
31,0,0.0,0,0,0.0,0,0,0.0,0,0,0,0,NO
24,0,0.0,0,0,0.0,0,0,0.0,0,0,0,0,NO
34,0,0.0,0,0,0.0,0,0,0.0,0,0,0,0,NO
123,0,0.0,0,0,0.0,0,0,0.0,0,0,0,0,NO
87,0,0.0,0,0,0.0,0,0,0.0,0,0,0,0,NO
26,0,0.0,0,0,0.0,0,0,0.0,0,0,0,0,NO
25,0,0.0,0,0,0.0,0,0,0.0,0,0,0,0,NO
23,0,0.0,0,0,0.0,0,0,0.0,0,0,0,0,NO
23,0,0.0,0,0,0.0,0,0,0.0,0,0,0,0,NO
23,0,0.0,0,0,0.0,0,0,0.0,0,0,0,0,NO
33,0,0.0,0,0,0.0,0,0,0.0,0,0,0,0,NO
32,0,0.0,0,0,0.0,0,0,0.0,0,0,0,0,NO
29,0,0.0,0,0,0.0,0,0,0.0,0,0,0,0,NO
22,0,0.0,0,0,0.0,0,0,0.0,0,0,0,0,NO
25,0,0.0,0,0,0.0,0,0,0.0,0,0,0,0,YES
24,0,0.0,0,0,0.0,0,0,0.0,0,0,0,0,NO
31,0,0.0,0,0,0.0,0,0,0.0,0,0,0,0,NO
31,0,0.0,0,0,0.0,0,0,0.0,0,0,0,0,NO
26,0,0.0,0,0,0.0,0,0,0.0,0,0,0,0,NO
26,0,0.0,0,0,0.0,0,0,0.0,0,0,0,0,NO
26,0,0.0,0,0,0.0,0,0,0.0,0,0,0,0,NO
36,0,0.0,0,0,0.0,0,0,0.0,0,0,0,0,NO
65,0,0.0,0,0,0.0,0,0,0.0,0,0,0,0,NO
41,0,0.0,0,0,0.0,0,0,0.0,0,0,0,0,NO
39,0,0.0,0,0,0.0,0,0,0.0,0,0,0,0,NO
38,0,0.0,0,0,0.0,0,0,0.0,0,0,0,0,NO
31,0,0.0,0,0,0.0,0,0,0.0,0,0,0,0,NO
125,0,0.0,0,0,0.0,0,0,0.0,0,0,0,0,NO
38,0,0.0,0,0,0.0,0,0,0.0,0,0,0,0,NO
48,0,0.0,0,0,0.0,0,0,0.0,0,0,0,0,NO
44,0,0.0,0,0,0.0,0,0,0.0,0,0,0,0,NO
42,0,0.0,0,0,0.0,0,0,0.0,0,0,0,0,NO
46,0,0.0,0,0,0.0,0,0,0.0,0,0,0,0,NO
42,0,0.0,0,0,0.0,0,0,0.0,0,0,0,0,NO
113,0,0.0,0,0,0.0,0,0,0.0,0,0,0,0,NO
53,0,0.0,0,0,0.0,0,0,0.0,0,0,0,0,NO
56,0,0.0,0,0,0.0,0,0,0.0,0,0,0,0,NO
61,0,0.0,0,0,0.0,0,0,0.0,0,0,0,0,NO
49,0,0.0,0,0,0.0,0,0,0.0,0,0,0,0,NO
53,0,0.0,0,0,0.0,0,0,0.0,0,0,0,0,NO
29,0,0.0,0,0,0.0,0,0,0.0,0,0,0,0,NO
48,0,0.0,0,0,0.0,0,0,0.0,0,0,0,0,NO
96,0,0.0,0,0,0.0,0,0,0.0,0,0,0,0,NO
95,0,0.0,0,0,0.0,0,0,0.0,0,0,0,0,NO
51,0,0.0,0,0,0.0,0,0,0.0,0,0,0,0,NO
29,0,0.0,0,0,0.0,0,0,0.0,0,0,0,0,NO
159,0,0.0,0,0,0.0,0,0,0.0,0,0,0,0,NO
53,0,0.0,0,0,0.0,0,0,0.0,0,0,0,0,NO
56,0,0.0,0,0,0.0,0,0,0.0,0,0,0,0,NO
27,0,0.0,0,0,0.0,0,0,0.0,0,0,0,0,NO
95,0,0.0,0,0,0.0,0,0,0.0,0,0,0,0,NO
40,0,0.0,0,0,0.0,0,0,0.0,0,0,0,0,NO
45,0,0.0,0,0,0.0,0,0,0.0,0,0,0,0,NO
61,0,0.0,0,0,0.0,0,0,0.0,0,0,0,0,NO
53,0,0.0,0,0,0.0,0,0,0.0,0,0,0,0,YES
38,0,0.0,0,0,0.0,0,0,0.0,0,0,0,0,NO
64,0,0.0,0,0,0.0,0,0,0.0,0,0,0,0,NO
31,0,0.0,0,0,0.0,0,0,0.0,0,0,0,0,NO
52,0,0.0,0,0,0.0,0,0,0.0,0,0,0,0,NO
29,0,0.0,0,0,0.0,0,0,0.0,0,0,0,0,NO
33,0,0.0,0,0,0.0,0,0,0.0,0,0,0,0,NO
39,0,0.0,0,0,0.0,0,0,0.0,0,0,0,0,NO
218,7,1.0,1,7,1.0,1,0,0.0,0,7,0,6,NO
40,0,0.0,0,0,0.0,0,0,0.0,0,0,0,0,NO
27,0,0.0,0,0,0.0,0,0,0.0,0,0,0,0,NO
84,0,0.0,0,0,0.0,0,0,0.0,0,0,0,0,NO
62,0,0.0,0,0,0.0,0,0,0.0,0,0,0,0,NO
80,0,0.0,0,0,0.0,0,0,0.0,0,0,0,0,NO
59,0,0.0,0,0,0.0,0,0,0.0,0,0,0,0,NO
93,0,0.0,0,0,0.0,0,0,0.0,0,0,0,0,NO
107,0,0.0,0,0,0.0,0,0,0.0,0,0,0,0,NO
73,0,0.0,0,0,0.0,0,0,0.0,0,0,0,0,NO
106,0,0.0,0,0,0.0,0,0,0.0,0,0,0,0,NO
76,0,0.0,0,0,0.0,0,0,0.0,0,0,0,0,NO
92,8,1.0,1,8,1.0,1,0,0.0,0,8,0,7,NO
24,0,0.0,0,0,0.0,0,0,0.0,0,0,0,0,NO
33,8,1.0,1,8,1.0,1,0,0.0,0,8,0,7,YES
31,0,0.0,0,0,0.0,0,0,0.0,0,0,0,0,NO
62,8,1.0,1,8,1.0,1,0,0.0,0,8,0,7,YES
77,8,1.0,1,8,1.0,1,0,0.0,0,8,0,7,YES
25,0,0.0,0,0,0.0,0,0,0.0,0,0,0,0,NO
125,146,9.125,41,53,3.3125,11,93,5.8125,31,16,1,10,YES
201,85,8.5,10,85,8.5,10,0,0.0,0,10,0,8,NO
171,91,13.0,13,91,13.0,13,0,0.0,0,7,0,6,NO
204,74,4.111111111111111,15,48,2.6666666666666665,9,34,1.8888888888888888,9,18,0,9,NO
49,0,0.0,0,0,0.0,0,0,0.0,0,0,0,0,NO
38,0,0.0,0,0,0.0,0,0,0.0,0,0,0,0,NO
182,83,7.545454545454546,11,63,5.7272727272727275,7,20,1.8181818181818181,4,11,0,7,NO
94,21,3.0,3,21,3.0,3,0,0.0,0,7,0,6,NO
138,37,4.111111111111111,5,37,4.111111111111111,5,0,0.0,0,9,0,8,NO
25,0,0.0,0,0,0.0,0,0,0.0,0,0,0,0,NO
25,0,0.0,0,0,0.0,0,0,0.0,0,0,0,0,NO
36,0,0.0,0,0,0.0,0,0,0.0,0,0,0,0,NO
26,0,0.0,0,0,0.0,0,0,0.0,0,0,0,0,NO
44,0,0.0,0,0,0.0,0,0,0.0,0,0,0,0,NO
52,0,0.0,0,0,0.0,0,0,0.0,0,0,0,0,NO
50,0,0.0,0,0,0.0,0,0,0.0,0,0,0,0,NO
75,0,0.0,0,0,0.0,0,0,0.0,0,0,0,0,NO
28,0,0.0,0,0,0.0,0,0,0.0,0,0,0,0,NO
31,0,0.0,0,0,0.0,0,0,0.0,0,0,0,0,NO
41,0,0.0,0,0,0.0,0,0,0.0,0,0,0,0,NO
26,0,0.0,0,0,0.0,0,0,0.0,0,0,0,0,NO
39,0,0.0,0,0,0.0,0,0,0.0,0,0,0,0,NO
26,0,0.0,0,0,0.0,0,0,0.0,0,0,0,0,NO
30,0,0.0,0,0,0.0,0,0,0.0,0,0,0,0,NO
25,0,0.0,0,0,0.0,0,0,0.0,0,0,0,0,NO
33,0,0.0,0,0,0.0,0,0,0.0,0,0,0,0,NO
44,0,0.0,0,0,0.0,0,0,0.0,0,0,0,0,NO
23,0,0.0,0,0,0.0,0,0,0.0,0,0,0,0,NO
80,0,0.0,0,0,0.0,0,0,0.0,0,0,0,0,NO
79,0,0.0,0,0,0.0,0,0,0.0,0,0,0,0,YES
26,0,0.0,0,0,0.0,0,0,0.0,0,0,0,0,NO
83,0,0.0,0,0,0.0,0,0,0.0,0,0,0,0,NO
92,0,0.0,0,0,0.0,0,0,0.0,0,0,0,0,NO
26,0,0.0,0,0,0.0,0,0,0.0,0,0,0,0,NO
85,0,0.0,0,0,0.0,0,0,0.0,0,0,0,0,NO
67,0,0.0,0,0,0.0,0,0,0.0,0,0,0,0,NO
124,0,0.0,0,0,0.0,0,0,0.0,0,0,0,0,NO
26,0,0.0,0,0,0.0,0,0,0.0,0,0,0,0,NO
25,0,0.0,0,0,0.0,0,0,0.0,0,0,0,0,NO
76,0,0.0,0,0,0.0,0,0,0.0,0,0,0,0,NO
109,0,0.0,0,0,0.0,0,0,0.0,0,0,0,0,NO
24,0,0.0,0,0,0.0,0,0,0.0,0,0,0,0,NO
27,0,0.0,0,0,0.0,0,0,0.0,0,0,0,0,NO
47,0,0.0,0,0,0.0,0,0,0.0,0,0,0,0,NO
185,15,1.25,2,15,1.25,2,0,0.0,0,12,0,8,NO
96,8,1.0,1,8,1.0,1,0,0.0,0,8,0,7,NO
97,8,1.0,1,8,1.0,1,0,0.0,0,8,0,7,NO
23,0,0.0,0,0,0.0,0,0,0.0,0,0,0,0,NO
154,0,0.0,0,0,0.0,0,0,0.0,0,0,0,0,NO
47,0,0.0,0,0,0.0,0,0,0.0,0,0,0,0,NO
176,0,0.0,0,0,0.0,0,0,0.0,0,0,0,0,NO
36,0,0.0,0,0,0.0,0,0,0.0,0,0,0,0,NO
32,0,0.0,0,0,0.0,0,0,0.0,0,0,0,0,NO
30,0,0.0,0,0,0.0,0,0,0.0,0,0,0,0,NO
37,0,0.0,0,0,0.0,0,0,0.0,0,0,0,0,NO
33,0,0.0,0,0,0.0,0,0,0.0,0,0,0,0,NO
32,0,0.0,0,0,0.0,0,0,0.0,0,0,0,0,NO
289,0,0.0,0,0,0.0,0,0,0.0,0,0,0,0,NO
66,0,0.0,0,0,0.0,0,0,0.0,0,0,0,0,NO
425,72,4.8,10,78,5.2,10,6,0.4,1,15,0,12,YES
734,134,8.933333333333334,23,120,8.0,12,14,0.9333333333333333,11,15,0,10,NO
147,0,0.0,0,0,0.0,0,0,0.0,0,0,0,0,NO
47,0,0.0,0,0,0.0,0,0,0.0,0,0,0,0,YES
171,0,0.0,0,0,0.0,0,0,0.0,0,0,0,0,YES
92,0,0.0,0,0,0.0,0,0,0.0,0,0,0,0,NO
44,0,0.0,0,0,0.0,0,0,0.0,0,0,0,0,NO
34,0,0.0,0,0,0.0,0,0,0.0,0,0,0,0,NO
359,12,6.0,6,12,6.0,6,0,0.0,0,2,0,2,NO
60,0,0.0,0,0,0.0,0,0,0.0,0,0,0,0,NO
28,0,0.0,0,0,0.0,0,0,0.0,0,0,0,0,NO
50,0,0.0,0,0,0.0,0,0,0.0,0,0,0,0,NO
35,0,0.0,0,0,0.0,0,0,0.0,0,0,0,0,NO
142,4,4.0,4,29,29.0,29,25,25.0,25,1,0,1,NO
642,2497,356.7142857142857,642,7,1.0,7,2492,356.0,642,7,1,5,YES
66,66,66.0,66,0,0.0,0,66,66.0,66,1,0,1,NO
86,172,86.0,86,0,0.0,0,172,86.0,86,2,0,2,NO
83,166,83.0,83,0,0.0,0,166,83.0,83,2,0,2,NO
94,188,94.0,94,0,0.0,0,188,94.0,94,2,0,2,NO
82,3,3.0,3,3,3.0,3,0,0.0,0,1,0,1,NO
71,71,71.0,71,0,0.0,0,71,71.0,71,1,0,1,YES
60,60,60.0,60,0,0.0,0,60,60.0,60,1,0,1,NO
48,384,48.0,48,0,0.0,0,384,48.0,48,8,1,6,YES
110,948,63.2,115,44,2.933333333333333,11,936,62.4,115,15,0,9,NO
159,215,11.944444444444445,56,250,13.88888888888889,52,247,13.722222222222221,47,18,1,10,YES
40,200,40.0,40,0,0.0,0,200,40.0,40,5,0,5,NO
100,0,0.0,0,0,0.0,0,0,0.0,0,0,0,0,NO
78,312,78.0,78,0,0.0,0,312,78.0,78,4,1,4,YES
302,1216,304.0,304,0,0.0,0,1216,304.0,304,4,1,4,YES
87,348,87.0,87,0,0.0,0,348,87.0,87,4,1,4,YES
198,794,132.33333333333334,198,2,0.3333333333333333,1,792,132.0,198,6,1,6,YES
175,700,175.0,175,0,0.0,0,700,175.0,175,4,1,4,YES
68,517,34.46666666666667,68,272,18.133333333333333,30,301,20.066666666666666,68,15,1,8,YES
105,420,105.0,105,0,0.0,0,420,105.0,105,4,1,4,YES
58,232,58.0,58,0,0.0,0,232,58.0,58,4,1,4,YES
196,784,196.0,196,0,0.0,0,784,196.0,196,4,1,4,YES
106,434,31.0,106,10,0.7142857142857143,1,424,30.285714285714285,106,14,1,8,YES
130,520,130.0,130,0,0.0,0,520,130.0,130,4,1,4,YES
64,256,64.0,64,0,0.0,0,256,64.0,64,4,1,4,YES
132,528,132.0,132,0,0.0,0,528,132.0,132,4,1,4,YES
62,248,62.0,62,0,0.0,0,248,62.0,62,4,1,4,YES
108,432,108.0,108,0,0.0,0,432,108.0,108,4,1,4,YES
432,1740,108.75,432,12,0.75,1,1728,108.0,432,16,2,9,YES
174,696,174.0,174,0,0.0,0,696,174.0,174,4,1,4,YES
246,984,246.0,246,0,0.0,0,984,246.0,246,4,1,4,YES
106,424,106.0,106,0,0.0,0,424,106.0,106,4,1,4,YES
121,484,121.0,121,0,0.0,0,484,121.0,121,4,1,4,YES
110,440,110.0,110,0,0.0,0,440,110.0,110,4,1,4,YES
58,232,58.0,58,0,0.0,0,232,58.0,58,4,1,4,YES
37,148,37.0,37,0,0.0,0,148,37.0,37,4,1,4,YES
77,308,77.0,77,0,0.0,0,308,77.0,77,4,1,4,YES
142,568,142.0,142,0,0.0,0,568,142.0,142,4,1,4,YES
114,456,114.0,114,0,0.0,0,456,114.0,114,4,1,4,YES
80,320,80.0,80,0,0.0,0,320,80.0,80,4,1,4,YES
59,236,59.0,59,0,0.0,0,236,59.0,59,4,1,4,YES
69,359,21.11764705882353,56,17,1.0,2,342,20.11764705882353,56,17,2,8,YES
95,1140,95.0,95,0,0.0,0,1140,95.0,95,12,0,7,NO
64,256,64.0,64,0,0.0,0,256,64.0,64,4,1,4,YES
164,662,132.4,164,6,1.2,6,656,131.2,164,5,1,5,YES
70,280,70.0,70,0,0.0,0,280,70.0,70,4,1,4,YES
32,128,32.0,32,0,0.0,0,128,32.0,32,4,1,4,YES
148,592,148.0,148,0,0.0,0,592,148.0,148,4,1,4,YES
156,624,156.0,156,0,0.0,0,624,156.0,156,4,1,4,YES
119,476,119.0,119,0,0.0,0,476,119.0,119,4,1,4,YES
118,507,46.09090909090909,118,49,4.454545454545454,7,486,44.18181818181818,118,11,1,8,YES
93,644,64.4,124,86,8.6,39,682,68.2,124,10,0,3,NO
229,916,229.0,229,0,0.0,0,916,229.0,229,4,1,4,YES
123,996,66.4,123,5,0.3333333333333333,4,991,66.06666666666666,123,15,1,7,YES
201,2412,201.0,201,0,0.0,0,2412,201.0,201,12,0,7,NO
180,2160,180.0,180,0,0.0,0,2160,180.0,180,12,0,7,NO
156,624,156.0,156,0,0.0,0,624,156.0,156,4,1,4,YES
98,684,68.4,134,96,9.6,44,732,73.2,134,10,0,3,NO
85,340,85.0,85,0,0.0,0,340,85.0,85,4,1,4,YES
48,192,48.0,48,0,0.0,0,192,48.0,48,4,1,4,YES
145,640,91.42857142857143,145,60,8.571428571428571,27,588,84.0,145,7,0,4,NO
145,603,43.07142857142857,144,18,1.2857142857142858,18,585,41.785714285714285,144,14,2,6,YES
113,588,84.0,113,23,3.2857142857142856,22,565,80.71428571428571,113,7,0,4,NO
146,584,146.0,146,0,0.0,0,584,146.0,146,4,1,4,YES
113,452,113.0,113,0,0.0,0,452,113.0,113,4,1,4,YES
147,588,147.0,147,0,0.0,0,588,147.0,147,4,1,4,YES
125,500,125.0,125,0,0.0,0,500,125.0,125,4,1,4,YES
252,1008,252.0,252,0,0.0,0,1008,252.0,252,4,1,4,YES
368,1472,368.0,368,0,0.0,0,1472,368.0,368,4,1,4,YES
106,424,106.0,106,0,0.0,0,424,106.0,106,4,1,4,YES
181,724,181.0,181,0,0.0,0,724,181.0,181,4,1,4,YES
260,633,31.65,264,126,6.3,13,563,28.15,264,20,2,14,YES
610,1488,64.69565217391305,616,178,7.739130434782608,20,1364,59.30434782608695,616,23,1,14,YES
39,82,13.666666666666666,39,4,0.6666666666666666,1,78,13.0,39,6,1,6,YES
39,78,39.0,39,0,0.0,0,78,39.0,39,2,0,2,NO
39,78,39.0,39,0,0.0,0,78,39.0,39,2,0,2,NO
24,48,24.0,24,0,0.0,0,48,24.0,24,2,0,2,NO
62,124,62.0,62,0,0.0,0,124,62.0,62,2,0,2,NO
77,166,27.666666666666668,77,12,2.0,3,154,25.666666666666668,77,6,1,6,YES
77,154,77.0,77,0,0.0,0,154,77.0,77,2,0,2,NO
54,108,54.0,54,0,0.0,0,108,54.0,54,2,0,2,NO
92,192,21.333333333333332,92,4,0.4444444444444444,1,188,20.88888888888889,92,9,1,7,YES
58,116,58.0,58,0,0.0,0,116,58.0,58,2,0,2,NO
24,48,24.0,24,0,0.0,0,48,24.0,24,2,0,2,NO
64,128,64.0,64,0,0.0,0,128,64.0,64,2,0,2,NO
216,436,72.66666666666667,216,4,0.6666666666666666,1,432,72.0,216,6,1,6,YES
36,72,36.0,36,0,0.0,0,72,36.0,36,2,0,2,NO
36,72,36.0,36,0,0.0,0,72,36.0,36,2,0,2,NO
208,416,208.0,208,0,0.0,0,416,208.0,208,2,0,2,NO
39,176,22.0,39,20,2.5,5,156,19.5,39,8,1,7,YES
47,216,27.0,47,28,3.5,7,188,23.5,47,8,1,7,YES
74,148,74.0,74,0,0.0,0,148,74.0,74,2,0,2,NO
71,178,29.666666666666668,71,36,6.0,9,142,23.666666666666668,71,6,1,6,YES
56,128,21.333333333333332,56,16,2.6666666666666665,4,112,18.666666666666668,56,6,1,6,YES
44,104,17.333333333333332,44,16,2.6666666666666665,4,88,14.666666666666666,44,6,1,6,YES
55,126,21.0,55,16,2.6666666666666665,4,110,18.333333333333332,55,6,1,6,YES
53,393,30.23076923076923,54,15,1.1538461538461537,5,386,29.692307692307693,54,13,1,11,YES
187,1383,81.3529411764706,187,40,2.3529411764705883,12,1343,79.0,187,17,1,11,YES
44,320,29.09090909090909,44,12,1.0909090909090908,3,308,28.0,44,11,1,11,YES
171,1244,62.2,168,38,1.9,16,1206,60.3,168,20,0,12,NO
493,3712,154.66666666666666,471,177,7.375,78,3535,147.29166666666666,471,24,0,12,NO
122,882,110.25,127,28,3.5,28,864,108.0,127,8,0,7,NO
132,928,77.33333333333333,132,4,0.3333333333333333,1,924,77.0,132,12,1,11,YES
115,827,48.64705882352941,111,10,0.5882352941176471,1,817,48.05882352941177,111,17,0,12,NO
201,1447,120.58333333333333,201,40,3.3333333333333335,9,1407,117.25,201,12,1,11,YES
116,816,74.18181818181819,116,4,0.36363636363636365,1,812,73.81818181818181,116,11,1,11,YES
225,1575,196.875,225,0,0.0,0,1575,196.875,225,8,0,7,NO
42,296,37.0,42,2,0.25,2,294,36.75,42,8,0,7,NO
44,308,38.5,44,0,0.0,0,308,38.5,44,8,0,7,NO
136,956,106.22222222222223,136,4,0.4444444444444444,4,952,105.77777777777777,136,9,0,7,NO
27,189,27.0,27,0,0.0,0,189,27.0,27,7,0,7,NO
47,345,19.166666666666668,42,1,0.05555555555555555,1,344,19.11111111111111,42,18,0,12,NO
60,420,60.0,60,0,0.0,0,420,60.0,60,7,0,7,NO
58,424,35.333333333333336,58,18,1.5,4,406,33.833333333333336,58,12,1,11,YES
56,396,49.5,58,4,0.5,4,396,49.5,58,8,0,7,NO
205,1494,124.5,205,59,4.916666666666667,13,1435,119.58333333333333,205,12,1,11,YES
44,312,26.0,44,4,0.3333333333333333,1,308,25.666666666666668,44,12,1,11,YES
49,347,31.545454545454547,49,4,0.36363636363636365,1,343,31.181818181818183,49,11,1,11,YES
30,214,19.454545454545453,30,4,0.36363636363636365,1,210,19.09090909090909,30,11,1,11,YES
39,277,25.181818181818183,39,4,0.36363636363636365,1,273,24.818181818181817,39,11,1,11,YES
80,564,51.27272727272727,80,4,0.36363636363636365,1,560,50.90909090909091,80,11,1,11,YES
29,203,29.0,29,0,0.0,0,203,29.0,29,7,0,7,NO
49,345,43.125,50,2,0.25,2,345,43.125,50,8,0,7,NO
78,550,61.111111111111114,80,4,0.4444444444444444,2,550,61.111111111111114,80,9,0,7,NO
45,315,45.0,45,0,0.0,0,315,45.0,45,7,0,7,NO
31,217,31.0,31,0,0.0,0,217,31.0,31,7,0,7,NO
30,223,18.583333333333332,30,13,1.0833333333333333,3,210,17.5,30,12,1,11,YES
36,252,36.0,36,0,0.0,0,252,36.0,36,7,0,7,NO
43,309,28.09090909090909,43,8,0.7272727272727273,2,301,27.363636363636363,43,11,1,11,YES
60,248,31.0,60,8,1.0,2,240,30.0,60,8,1,8,YES
85,348,43.5,85,8,1.0,2,340,42.5,85,8,1,8,YES
92,368,92.0,92,0,0.0,0,368,92.0,92,4,0,4,NO
156,936,93.6,199,355,35.5,71,1021,102.1,199,10,2,8,YES
98,400,50.0,98,8,1.0,2,392,49.0,98,8,1,8,YES
131,602,50.166666666666664,133,36,3.0,8,586,48.833333333333336,133,12,2,8,YES
194,825,82.5,194,48,4.8,10,777,77.7,194,10,1,8,YES
201,851,85.1,201,38,3.8,9,813,81.3,201,10,1,8,YES
69,294,29.4,72,6,0.6,1,288,28.8,72,10,1,8,YES
68,276,34.5,68,4,0.5,1,272,34.0,68,8,1,8,YES
52,212,26.5,52,4,0.5,1,208,26.0,52,8,1,8,YES
50,204,25.5,50,4,0.5,1,200,25.0,50,8,1,8,YES
202,886,88.6,202,22,2.2,9,864,86.4,202,10,1,8,YES
73,298,49.666666666666664,73,4,0.6666666666666666,2,294,49.0,73,6,0,4,NO
42,168,42.0,42,0,0.0,0,168,42.0,42,4,0,4,NO
35,140,35.0,35,0,0.0,0,140,35.0,35,4,0,4,NO
125,552,55.2,125,50,5.0,10,502,50.2,125,10,0,7,NO
65,260,65.0,65,0,0.0,0,260,65.0,65,4,0,4,NO
48,192,48.0,48,0,0.0,0,192,48.0,48,4,0,4,NO
89,356,89.0,89,0,0.0,0,356,89.0,89,4,0,4,NO
153,627,104.5,153,14,2.3333333333333335,7,613,102.16666666666667,153,6,0,4,NO
40,160,40.0,40,0,0.0,0,160,40.0,40,4,0,4,NO
64,260,32.5,64,4,0.5,1,256,32.0,64,8,1,8,YES
99,412,51.5,99,16,2.0,4,396,49.5,99,8,1,8,YES
73,300,37.5,73,8,1.0,2,292,36.5,73,8,1,8,YES
72,296,37.0,72,8,1.0,2,288,36.0,72,8,1,8,YES
51,257,42.833333333333336,51,2,0.3333333333333333,2,255,42.5,51,6,2,5,YES
36,186,23.25,36,6,0.75,2,180,22.5,36,8,1,8,YES
31,134,14.88888888888889,31,10,1.1111111111111112,2,124,13.777777777777779,31,9,2,8,YES
61,352,32.0,86,133,12.090909090909092,27,469,42.63636363636363,86,11,2,8,YES
74,370,74.0,74,0,0.0,0,370,74.0,74,5,2,5,YES
101,408,40.8,101,4,0.4,1,404,40.4,101,10,2,9,YES
86,431,71.83333333333333,86,1,0.16666666666666666,1,430,71.66666666666667,86,6,2,5,YES
106,532,88.66666666666667,106,2,0.3333333333333333,2,530,88.33333333333333,106,6,2,5,YES
91,461,76.83333333333333,92,1,0.16666666666666666,1,460,76.66666666666667,92,6,2,5,YES
58,292,48.666666666666664,58,2,0.3333333333333333,2,290,48.333333333333336,58,6,2,5,YES
106,531,88.5,106,1,0.16666666666666666,1,530,88.33333333333333,106,6,2,5,YES
143,717,119.5,143,2,0.3333333333333333,2,715,119.16666666666667,143,6,2,5,YES
52,261,43.5,52,1,0.16666666666666666,1,260,43.333333333333336,52,6,2,5,YES
88,442,73.66666666666667,88,2,0.3333333333333333,2,440,73.33333333333333,88,6,2,5,YES
66,291,26.454545454545453,68,29,2.6363636363636362,6,282,25.636363636363637,68,11,2,8,YES
44,232,29.0,44,12,1.5,4,220,27.5,44,8,1,8,YES
158,818,90.88888888888889,158,28,3.111111111111111,13,790,87.77777777777777,158,9,1,8,YES
51,265,29.444444444444443,51,10,1.1111111111111112,3,255,28.333333333333332,51,9,1,8,YES
36,189,23.625,36,9,1.125,3,180,22.5,36,8,1,8,YES
63,324,40.5,63,9,1.125,3,315,39.375,63,8,1,8,YES
36,76,12.666666666666666,36,4,0.6666666666666666,1,72,12.0,36,6,1,6,YES
43,94,15.666666666666666,43,8,1.3333333333333333,2,86,14.333333333333334,43,6,1,6,YES
81,189,27.0,81,23,3.2857142857142856,5,166,23.714285714285715,81,7,1,7,YES
75,169,24.142857142857142,75,17,2.4285714285714284,4,152,21.714285714285715,75,7,1,7,YES
81,184,26.285714285714285,81,12,1.7142857142857142,3,172,24.571428571428573,81,7,1,7,YES
88,203,29.0,88,25,3.5714285714285716,6,178,25.428571428571427,88,7,1,7,YES
42,88,14.666666666666666,42,4,0.6666666666666666,1,84,14.0,42,6,1,6,YES
82,213,71.0,82,21,7.0,21,192,64.0,82,3,0,3,NO
55,114,19.0,55,4,0.6666666666666666,1,110,18.333333333333332,55,6,1,6,YES
48,144,48.0,48,0,0.0,0,144,48.0,48,3,0,3,NO
72,216,72.0,72,0,0.0,0,216,72.0,72,3,0,3,NO
113,245,35.0,113,37,5.285714285714286,25,244,34.857142857142854,113,7,1,7,YES
55,132,18.857142857142858,55,22,3.142857142857143,10,110,15.714285714285714,55,7,1,7,YES
35,83,11.857142857142858,35,13,1.8571428571428572,3,70,10.0,35,7,1,7,YES
47,98,16.333333333333332,47,4,0.6666666666666666,1,94,15.666666666666666,47,6,1,6,YES
101,159,26.5,101,38,6.333333333333333,18,121,20.166666666666668,101,6,1,6,YES
109,218,109.0,109,0,0.0,0,218,109.0,109,2,0,2,NO
28,60,10.0,28,4,0.6666666666666666,1,56,9.333333333333334,28,6,1,6,YES
54,54,54.0,54,0,0.0,0,54,54.0,54,1,0,1,NO
158,186,31.0,158,25,4.166666666666667,6,161,26.833333333333332,158,6,1,6,YES
52,65,10.833333333333334,52,12,2.0,4,53,8.833333333333334,52,6,1,6,YES
53,81,16.2,53,28,5.6,7,53,10.6,53,5,1,5,YES
81,117,23.4,81,36,7.2,9,81,16.2,81,5,1,5,YES
83,111,22.2,83,28,5.6,7,83,16.6,83,5,1,5,YES
63,91,18.2,63,28,5.6,7,63,12.6,63,5,1,5,YES
48,48,48.0,48,0,0.0,0,48,48.0,48,1,0,1,NO
55,59,11.8,55,4,0.8,1,55,11.0,55,5,1,5,YES
149,185,30.833333333333332,149,37,6.166666666666667,25,150,25.0,149,6,1,6,YES
263,292,48.666666666666664,263,24,4.0,6,268,44.666666666666664,263,6,1,6,YES
179,251,125.5,179,58,29.0,58,193,96.5,179,2,0,2,NO
37,37,37.0,37,0,0.0,0,37,37.0,37,1,0,1,NO
25,25,25.0,25,0,0.0,0,25,25.0,25,1,0,1,NO
30,34,6.8,30,4,0.8,1,30,6.0,30,5,1,5,YES
36,39,19.5,36,2,1.0,2,37,18.5,36,2,0,2,NO
30,30,30.0,30,0,0.0,0,30,30.0,30,1,0,1,NO
27,27,27.0,27,0,0.0,0,27,27.0,27,1,0,1,NO
37,37,37.0,37,0,0.0,0,37,37.0,37,1,0,1,NO
33,33,33.0,33,0,0.0,0,33,33.0,33,1,0,1,NO
31,31,31.0,31,0,0.0,0,31,31.0,31,1,0,1,NO
56,56,56.0,56,0,0.0,0,56,56.0,56,1,0,1,NO
101,101,101.0,101,0,0.0,0,101,101.0,101,1,0,1,NO
139,146,73.0,139,4,2.0,4,142,71.0,139,2,0,2,NO
85,86,43.0,85,1,0.5,1,85,42.5,85,2,0,2,NO
95,95,95.0,95,0,0.0,0,95,95.0,95,1,0,1,NO
60,68,13.6,60,8,1.6,2,60,12.0,60,5,1,5,YES
35,35,35.0,35,0,0.0,0,35,35.0,35,1,0,1,NO
26,26,26.0,26,0,0.0,0,26,26.0,26,1,0,1,NO
69,81,16.2,69,12,2.4,3,69,13.8,69,5,1,5,YES
64,78,11.142857142857142,64,14,2.0,3,64,9.142857142857142,64,7,1,7,YES
39,43,8.6,39,4,0.8,1,39,7.8,39,5,1,5,YES
41,41,41.0,41,0,0.0,0,41,41.0,41,1,0,1,NO
167,184,30.666666666666668,167,17,2.8333333333333335,4,167,27.833333333333332,167,6,1,6,YES
66,80,11.428571428571429,66,14,2.0,3,66,9.428571428571429,66,7,1,7,YES
93,100,50.0,93,5,2.5,5,95,47.5,93,2,0,2,NO
77,22,1.4666666666666666,4,24,1.6,4,14,0.9333333333333333,2,15,1,12,YES
123,283,14.894736842105264,69,191,10.052631578947368,22,260,13.68421052631579,57,19,3,12,YES
90,50,7.142857142857143,10,15,2.142857142857143,4,35,5.0,7,7,2,6,YES
48,8,2.0,2,8,2.0,2,0,0.0,0,4,1,4,YES
85,0,0.0,0,0,0.0,0,0,0.0,0,0,0,0,NO
43,12,3.0,3,12,3.0,3,0,0.0,0,4,1,4,YES
90,8,2.0,2,8,2.0,2,0,0.0,0,4,1,4,YES
202,0,0.0,0,0,0.0,0,0,0.0,0,0,0,0,NO
135,0,0.0,0,0,0.0,0,0,0.0,0,0,0,0,NO
30,0,0.0,0,0,0.0,0,0,0.0,0,0,0,0,NO
29,0,0.0,0,0,0.0,0,0,0.0,0,0,0,0,NO
67,12,4.0,4,18,6.0,6,6,2.0,2,3,0,3,NO
242,16,4.0,4,16,4.0,4,0,0.0,0,4,1,4,YES
72,224,16.0,22,144,10.285714285714286,14,80,5.714285714285714,8,14,2,11,YES
50,50,50.0,50,0,0.0,0,50,50.0,50,1,0,1,NO
89,12,3.0,3,12,3.0,3,0,0.0,0,4,1,4,YES
40,40,40.0,40,0,0.0,0,40,40.0,40,1,0,1,NO
49,12,3.0,3,12,3.0,3,0,0.0,0,4,1,4,YES
249,43,8.6,23,44,8.8,24,1,0.2,1,5,1,5,YES
40,16,4.0,4,16,4.0,4,0,0.0,0,4,1,4,YES
171,25,5.0,6,25,5.0,6,0,0.0,0,5,1,5,YES
40,12,3.0,3,12,3.0,3,0,0.0,0,4,1,4,YES
32,12,3.0,3,12,3.0,3,0,0.0,0,4,1,4,YES
275,1738,108.625,275,100,6.25,21,1654,103.375,275,16,0,4,NO
55,338,24.142857142857142,55,8,0.5714285714285714,2,330,23.571428571428573,55,14,0,4,NO
80,720,80.0,80,0,0.0,0,720,80.0,80,9,2,6,YES
28,252,28.0,28,0,0.0,0,252,28.0,28,9,2,6,YES
44,396,44.0,44,0,0.0,0,396,44.0,44,9,2,6,YES
83,747,83.0,83,0,0.0,0,747,83.0,83,9,2,6,YES
67,603,67.0,67,0,0.0,0,603,67.0,67,9,2,6,YES
36,324,36.0,36,0,0.0,0,324,36.0,36,9,2,6,YES
384,1601,160.1,384,65,6.5,16,1536,153.6,384,10,1,7,YES
196,792,99.0,196,8,1.0,2,784,98.0,196,8,1,7,YES
312,1260,157.5,312,12,1.5,3,1248,156.0,312,8,1,7,YES
120,516,57.333333333333336,120,36,4.0,9,480,53.333333333333336,120,9,1,7,YES
251,857,29.551724137931036,124,284,9.793103448275861,59,679,23.413793103448278,124,29,4,17,YES
141,739,23.838709677419356,145,202,6.516129032258065,56,725,23.387096774193548,145,31,4,17,YES
126,156,7.8,23,293,14.65,113,137,6.85,108,20,1,14,YES
143,158,7.9,19,176,8.8,24,30,1.5,6,20,1,14,YES
86,4,1.0,1,4,1.0,1,0,0.0,0,4,1,4,YES
69,4,1.0,1,4,1.0,1,0,0.0,0,4,1,4,YES
88,8,2.0,2,8,2.0,2,0,0.0,0,4,1,4,YES
42,4,1.0,1,4,1.0,1,0,0.0,0,4,1,4,YES
32,4,1.0,1,4,1.0,1,0,0.0,0,4,1,4,YES
56,4,1.0,1,4,1.0,1,0,0.0,0,4,1,4,YES
51,14,2.3333333333333335,5,4,0.6666666666666666,1,10,1.6666666666666667,5,6,1,5,YES
81,20,3.3333333333333335,8,4,0.6666666666666666,1,16,2.6666666666666665,8,6,1,5,YES
35,14,2.3333333333333335,5,4,0.6666666666666666,1,10,1.6666666666666667,5,6,1,5,YES
72,20,3.3333333333333335,8,4,0.6666666666666666,1,16,2.6666666666666665,8,6,1,5,YES
46,4,1.0,1,4,1.0,1,0,0.0,0,4,1,4,YES
46,4,1.0,1,4,1.0,1,0,0.0,0,4,1,4,YES
100,411,37.36363636363637,100,11,1.0,5,406,36.90909090909091,100,11,0,4,NO
32,128,32.0,32,0,0.0,0,128,32.0,32,4,0,4,NO
44,0,0.0,0,0,0.0,0,0,0.0,0,0,0,0,NO
29,0,0.0,0,0,0.0,0,0,0.0,0,0,0,0,NO
280,16,4.0,4,16,4.0,4,0,0.0,0,4,1,4,YES
63,16,2.6666666666666665,4,10,1.6666666666666667,2,6,1.0,3,6,1,6,YES
60,260,37.142857142857146,71,20,2.857142857142857,12,266,38.0,71,7,0,4,NO
46,201,25.125,46,17,2.125,8,184,23.0,46,8,0,4,NO
133,568,56.8,133,36,3.6,17,534,53.4,133,10,0,4,NO
333,1412,128.36363636363637,333,80,7.2727272727272725,24,1332,121.0909090909091,333,11,0,4,NO
36,145,29.0,36,1,0.2,1,144,28.8,36,5,0,4,NO
44,185,30.833333333333332,49,9,1.5,8,186,31.0,49,6,0,4,NO
741,3277,204.8125,741,313,19.5625,72,3002,187.625,741,16,0,4,NO
26,104,26.0,26,0,0.0,0,104,26.0,26,4,0,4,NO
70,288,48.0,70,8,1.3333333333333333,5,280,46.666666666666664,70,6,0,4,NO
213,909,101.0,227,57,6.333333333333333,38,920,102.22222222222223,227,9,0,4,NO
192,816,81.6,192,48,4.8,22,772,77.2,192,10,0,4,NO
562,646,107.66666666666667,311,190,31.666666666666668,83,456,76.0,228,6,1,6,YES
46,12,3.0,3,12,3.0,3,0,0.0,0,4,1,4,YES
31,12,3.0,3,12,3.0,3,0,0.0,0,4,1,4,YES
83,0,0.0,0,0,0.0,0,0,0.0,0,0,0,0,NO
71,4,1.0,1,4,1.0,1,0,0.0,0,4,1,4,YES
83,8,2.0,2,8,2.0,2,0,0.0,0,4,1,4,YES
40,0,0.0,0,0,0.0,0,0,0.0,0,0,0,0,NO
32,4,1.0,1,4,1.0,1,0,0.0,0,4,1,4,YES
57,4,1.0,1,4,1.0,1,0,0.0,0,4,1,4,YES
64,32,5.333333333333333,14,4,0.6666666666666666,1,28,4.666666666666667,14,6,1,6,YES
94,30,5.0,13,4,0.6666666666666666,1,26,4.333333333333333,13,6,1,6,YES
45,24,4.0,10,4,0.6666666666666666,1,20,3.3333333333333335,10,6,1,6,YES
98,62,10.333333333333334,29,8,1.3333333333333333,2,54,9.0,27,6,1,6,YES
46,4,1.0,1,4,1.0,1,0,0.0,0,4,1,4,YES
46,4,1.0,1,4,1.0,1,0,0.0,0,4,1,4,YES
349,734,29.36,87,562,22.48,62,342,13.68,48,25,6,12,YES
143,12,3.0,3,12,3.0,3,0,0.0,0,4,1,4,YES
81,12,3.0,3,12,3.0,3,0,0.0,0,4,1,4,YES
132,12,3.0,3,12,3.0,3,0,0.0,0,4,1,4,YES
162,79,5.642857142857143,11,32,2.2857142857142856,4,49,3.5,11,14,3,10,YES
85,60,10.0,10,6,1.0,1,54,9.0,9,6,1,3,YES
454,494,41.166666666666664,81,286,23.833333333333332,46,212,17.666666666666668,35,12,2,9,YES
312,152,15.2,22,116,11.6,16,36,3.6,6,10,2,7,YES
49,52,4.333333333333333,17,12,1.0,3,40,3.3333333333333335,17,12,2,9,YES
32,52,4.333333333333333,17,12,1.0,3,40,3.3333333333333335,17,12,2,9,YES
64,48,4.8,12,26,2.6,5,22,2.2,7,10,1,10,YES
105,76,7.6,12,20,2.0,4,56,5.6,10,10,1,10,YES
82,48,4.8,8,16,1.6,3,32,3.2,6,10,1,10,YES
111,6,3.0,3,8,4.0,4,2,1.0,1,2,0,2,NO
42,86,12.285714285714286,43,5,0.7142857142857143,1,91,13.0,43,7,1,7,YES
63,131,18.714285714285715,63,5,0.7142857142857143,1,126,18.0,63,7,1,7,YES
235,14,7.0,7,24,12.0,12,10,5.0,5,2,0,2,NO
75,0,0.0,0,0,0.0,0,0,0.0,0,0,0,0,NO
43,46,7.666666666666667,17,12,2.0,3,34,5.666666666666667,17,6,1,6,YES
33,4,1.0,1,4,1.0,1,0,0.0,0,4,1,4,YES
66,68,6.8,20,16,1.6,4,52,5.2,20,10,1,10,YES
99,42,4.2,9,8,0.8,2,34,3.4,7,10,1,10,YES
40,16,4.0,4,16,4.0,4,0,0.0,0,4,1,4,YES
160,36,6.0,6,38,6.333333333333333,7,2,0.3333333333333333,1,6,1,6,YES
40,12,3.0,3,12,3.0,3,0,0.0,0,4,1,4,YES
32,12,3.0,3,12,3.0,3,0,0.0,0,4,1,4,YES
547,2921,365.125,547,186,23.25,62,2735,341.875,547,8,0,2,NO
309,1659,207.375,309,114,14.25,38,1545,193.125,309,8,0,2,NO
101,544,68.0,111,39,4.875,13,565,70.625,111,8,0,2,NO
281,1405,281.0,281,0,0.0,0,1405,281.0,281,5,0,2,YES
72,360,72.0,72,0,0.0,0,360,72.0,72,5,0,2,NO
70,365,45.625,70,15,1.875,5,350,43.75,70,8,0,2,NO
158,835,104.375,162,45,5.625,15,814,101.75,162,8,0,2,NO
58,296,37.0,58,6,0.75,2,290,36.25,58,8,0,2,NO
82,410,82.0,82,0,0.0,0,410,82.0,82,5,0,2,NO
86,344,86.0,86,0,0.0,0,344,86.0,86,4,1,4,YES
25,100,25.0,25,0,0.0,0,100,25.0,25,4,1,4,YES
41,164,41.0,41,0,0.0,0,164,41.0,41,4,1,4,YES
213,852,213.0,213,0,0.0,0,852,213.0,213,4,1,4,YES
98,392,98.0,98,0,0.0,0,392,98.0,98,4,1,4,YES
184,763,152.6,184,11,2.2,11,752,150.4,184,5,1,5,YES
29,116,29.0,29,0,0.0,0,116,29.0,29,4,1,4,YES
29,168,33.6,52,7,1.4,7,161,32.2,45,5,1,5,YES
42,216,18.0,42,32,2.6666666666666665,4,184,15.333333333333334,42,12,1,9,YES
53,216,43.2,53,1,0.2,1,215,43.0,53,5,1,5,YES
43,172,43.0,43,0,0.0,0,172,43.0,43,4,1,4,YES
198,820,74.54545454545455,198,28,2.5454545454545454,4,792,72.0,198,11,1,9,YES
281,1318,69.36842105263158,275,148,7.7894736842105265,21,1170,61.578947368421055,275,19,1,13,YES
27,108,27.0,27,0,0.0,0,108,27.0,27,4,1,4,YES
38,152,38.0,38,0,0.0,0,152,38.0,38,4,1,4,YES
27,108,27.0,27,0,0.0,0,108,27.0,27,4,1,4,YES
41,164,41.0,41,0,0.0,0,164,41.0,41,4,1,4,YES
87,348,87.0,87,0,0.0,0,348,87.0,87,4,1,4,YES
28,112,28.0,28,0,0.0,0,112,28.0,28,4,1,4,YES
342,1609,53.63333333333333,316,133,4.433333333333334,13,1490,49.666666666666664,316,30,2,14,YES
46,186,37.2,46,0,0.0,0,186,37.2,46,5,1,5,YES
52,208,52.0,52,0,0.0,0,208,52.0,52,4,1,4,YES
38,152,38.0,38,0,0.0,0,152,38.0,38,4,1,4,YES
52,208,52.0,52,0,0.0,0,208,52.0,52,4,1,4,YES
38,152,38.0,38,0,0.0,0,152,38.0,38,4,1,4,YES
43,172,43.0,43,0,0.0,0,172,43.0,43,4,1,4,YES
48,192,48.0,48,0,0.0,0,192,48.0,48,4,1,4,YES
50,200,50.0,50,0,0.0,0,200,50.0,50,4,1,4,YES
25,100,25.0,25,0,0.0,0,100,25.0,25,4,1,4,YES
113,452,113.0,113,0,0.0,0,452,113.0,113,4,1,4,YES
36,144,36.0,36,0,0.0,0,144,36.0,36,4,1,4,YES
116,464,116.0,116,0,0.0,0,464,116.0,116,4,1,4,YES
178,712,178.0,178,0,0.0,0,712,178.0,178,4,1,4,YES
48,192,48.0,48,0,0.0,0,192,48.0,48,4,1,4,YES
32,128,32.0,32,0,0.0,0,128,32.0,32,4,1,4,YES
34,136,34.0,34,0,0.0,0,136,34.0,34,4,1,4,YES
26,104,26.0,26,0,0.0,0,104,26.0,26,4,1,4,YES
51,204,51.0,51,0,0.0,0,204,51.0,51,4,1,4,YES
31,124,31.0,31,0,0.0,0,124,31.0,31,4,1,4,YES
112,448,112.0,112,0,0.0,0,448,112.0,112,4,1,4,YES
26,104,26.0,26,0,0.0,0,104,26.0,26,4,1,4,YES
30,120,30.0,30,0,0.0,0,120,30.0,30,4,1,4,YES
40,160,40.0,40,0,0.0,0,160,40.0,40,4,1,4,YES
60,240,60.0,60,0,0.0,0,240,60.0,60,4,1,4,YES
49,196,49.0,49,0,0.0,0,196,49.0,49,4,1,4,YES
58,232,58.0,58,0,0.0,0,232,58.0,58,4,1,4,YES
37,148,37.0,37,0,0.0,0,148,37.0,37,4,1,4,YES
290,1255,66.05263157894737,287,94,4.947368421052632,10,1177,61.94736842105263,287,19,1,13,YES
102,408,102.0,102,0,0.0,0,408,102.0,102,4,1,4,YES
63,252,63.0,63,0,0.0,0,252,63.0,63,4,1,4,YES
31,124,31.0,31,0,0.0,0,124,31.0,31,4,1,4,YES
84,336,84.0,84,0,0.0,0,336,84.0,84,4,1,4,YES
41,164,41.0,41,0,0.0,0,164,41.0,41,4,1,4,YES
28,112,28.0,28,0,0.0,0,112,28.0,28,4,1,4,YES
34,136,34.0,34,0,0.0,0,136,34.0,34,4,1,4,YES
26,104,26.0,26,0,0.0,0,104,26.0,26,4,1,4,YES
79,241,34.42857142857143,79,4,0.5714285714285714,1,237,33.857142857142854,79,7,1,7,YES
60,184,26.285714285714285,60,4,0.5714285714285714,1,180,25.714285714285715,60,7,1,7,YES
56,616,56.0,56,0,0.0,0,616,56.0,56,11,1,6,NO
126,1150,60.526315789473685,69,98,5.157894736842105,34,1080,56.8421052631579,64,19,1,7,NO
76,837,49.23529411764706,75,6,0.35294117647058826,1,831,48.88235294117647,75,17,1,7,NO
87,1049,61.705882352941174,91,72,4.235294117647059,12,1025,60.294117647058826,91,17,1,7,NO
38,418,38.0,38,0,0.0,0,418,38.0,38,11,1,6,NO
39,429,39.0,39,0,0.0,0,429,39.0,39,11,1,6,NO
38,418,38.0,38,0,0.0,0,418,38.0,38,11,1,6,NO
40,440,40.0,40,0,0.0,0,440,40.0,40,11,1,6,NO
41,451,41.0,41,0,0.0,0,451,41.0,41,11,1,6,NO
97,1073,63.11764705882353,97,6,0.35294117647058826,1,1067,62.76470588235294,97,17,1,7,NO
42,462,42.0,42,0,0.0,0,462,42.0,42,11,1,6,NO
34,374,34.0,34,0,0.0,0,374,34.0,34,11,1,6,NO
36,189,31.5,45,9,1.5,9,198,33.0,45,6,0,3,NO
41,205,41.0,41,0,0.0,0,205,41.0,41,5,0,3,NO
44,223,31.857142857142858,44,3,0.42857142857142855,2,220,31.428571428571427,44,7,0,3,NO
37,186,31.0,37,1,0.16666666666666666,1,185,30.833333333333332,37,6,0,3,NO
107,545,77.85714285714286,108,10,1.4285714285714286,9,539,77.0,108,7,0,3,NO
334,1671,278.5,334,1,0.16666666666666666,1,1670,278.3333333333333,334,6,0,3,NO
67,371,61.833333333333336,101,36,6.0,36,403,67.16666666666667,101,6,0,3,NO
88,441,63.0,88,1,0.14285714285714285,1,440,62.857142857142854,88,7,0,3,NO
64,320,64.0,64,0,0.0,0,320,64.0,64,5,0,3,NO
34,172,28.666666666666668,34,2,0.3333333333333333,2,170,28.333333333333332,34,6,0,3,NO
37,187,31.166666666666668,37,2,0.3333333333333333,2,185,30.833333333333332,37,6,0,3,NO
71,355,71.0,71,0,0.0,0,355,71.0,71,5,0,3,NO
262,1348,192.57142857142858,291,38,5.428571428571429,31,1368,195.42857142857142,291,7,0,3,NO
97,485,97.0,97,0,0.0,0,485,97.0,97,5,0,3,NO
35,175,35.0,35,0,0.0,0,175,35.0,35,5,0,3,NO
85,433,61.857142857142854,85,8,1.1428571428571428,7,425,60.714285714285715,85,7,0,3,NO
49,249,35.57142857142857,49,4,0.5714285714285714,2,245,35.0,49,7,0,3,NO
102,510,102.0,102,0,0.0,0,510,102.0,102,5,0,3,NO
109,100,16.666666666666668,46,16,2.6666666666666665,4,84,14.0,42,6,1,6,YES
133,167,27.833333333333332,133,13,2.1666666666666665,3,154,25.666666666666668,133,6,1,6,YES
122,156,14.181818181818182,121,8,0.7272727272727273,2,148,13.454545454545455,121,11,2,8,YES
131,183,91.5,131,3,1.5,3,180,90.0,131,2,0,2,NO
177,285,47.5,163,0,0.0,0,285,47.5,163,6,1,6,YES
65,83,41.5,65,0,0.0,0,83,41.5,65,2,0,2,NO
53,68,34.0,53,0,0.0,0,68,34.0,53,2,0,2,NO
37,49,24.5,37,0,0.0,0,49,24.5,37,2,0,2,NO
76,92,46.0,76,0,0.0,0,92,46.0,76,2,0,2,NO
70,90,45.0,70,0,0.0,0,90,45.0,70,2,0,2,NO
43,60,10.0,43,14,2.3333333333333335,3,46,7.666666666666667,43,6,1,6,YES
29,37,18.5,29,1,0.5,1,36,18.0,29,2,0,2,NO
24,27,13.5,24,0,0.0,0,27,13.5,24,2,0,2,NO
41,61,10.166666666666666,41,6,1.0,2,55,9.166666666666666,41,6,1,6,YES
306,1240,155.0,306,16,2.0,10,1230,153.75,306,8,1,4,YES
120,487,97.4,120,7,1.4,7,480,96.0,120,5,1,4,YES
137,298,49.666666666666664,137,24,4.0,6,274,45.666666666666664,137,6,1,6,YES
95,210,35.0,95,20,3.3333333333333335,5,190,31.666666666666668,95,6,1,6,YES
96,208,34.666666666666664,96,16,2.6666666666666665,4,192,32.0,96,6,1,6,YES
56,114,57.0,57,0,0.0,0,114,57.0,57,2,0,2,NO
40,84,14.0,40,4,0.6666666666666666,1,80,13.333333333333334,40,6,1,6,YES
350,399,66.5,172,287,47.833333333333336,116,112,18.666666666666668,56,6,1,6,YES
112,89,14.833333333333334,39,25,4.166666666666667,7,64,10.666666666666666,32,6,1,6,YES
71,68,34.0,34,82,41.0,41,14,7.0,7,2,0,2,NO
93,108,54.0,54,74,37.0,37,34,17.0,17,2,0,2,NO
381,454,75.66666666666667,201,331,55.166666666666664,143,123,20.5,65,6,1,6,YES
115,89,14.833333333333334,39,25,4.166666666666667,7,64,10.666666666666666,32,6,1,6,YES
69,70,35.0,35,72,36.0,36,2,1.0,1,2,0,2,NO
98,118,59.0,59,72,36.0,36,46,23.0,23,2,0,2,NO
157,478,25.157894736842106,136,148,7.7894736842105265,17,422,22.210526315789473,136,19,2,9,YES
59,118,59.0,59,0,0.0,0,118,59.0,59,2,0,2,NO
30,60,30.0,30,0,0.0,0,60,30.0,30,2,0,2,NO
57,137,22.833333333333332,42,8,1.3333333333333333,6,129,21.5,42,6,1,5,YES
182,368,61.333333333333336,182,4,0.6666666666666666,1,364,60.666666666666664,182,6,1,6,YES
160,324,54.0,160,4,0.6666666666666666,1,320,53.333333333333336,160,6,1,6,YES
32,72,12.0,32,8,1.3333333333333333,2,64,10.666666666666666,32,6,1,6,YES
24,48,24.0,24,0,0.0,0,48,24.0,24,2,0,2,NO
50,100,50.0,50,0,0.0,0,100,50.0,50,2,0,2,NO
50,100,50.0,50,0,0.0,0,100,50.0,50,2,0,2,NO
63,126,63.0,63,0,0.0,0,126,63.0,63,2,0,2,NO
116,232,116.0,116,0,0.0,0,232,116.0,116,2,0,2,NO
182,364,182.0,182,0,0.0,0,364,182.0,182,2,0,2,NO
69,138,69.0,69,0,0.0,0,138,69.0,69,2,0,2,NO
27,54,27.0,27,0,0.0,0,54,27.0,27,2,0,2,NO
67,146,24.333333333333332,67,12,2.0,3,134,22.333333333333332,67,6,1,6,YES
44,100,16.666666666666668,44,12,2.0,3,88,14.666666666666666,44,6,1,6,YES
33,78,13.0,33,12,2.0,3,66,11.0,33,6,1,6,YES
72,0,0.0,0,0,0.0,0,0,0.0,0,0,0,0,NO
89,0,0.0,0,0,0.0,0,0,0.0,0,0,0,0,NO
304,0,0.0,0,0,0.0,0,0,0.0,0,0,0,0,NO
2430,10856,142.8421052631579,2370,40,0.5263157894736842,4,10820,142.3684210526316,2370,76,1,23,YES
36,144,36.0,36,0,0.0,0,144,36.0,36,4,1,4,YES
32,128,32.0,32,0,0.0,0,128,32.0,32,4,1,4,YES
49,196,49.0,49,0,0.0,0,196,49.0,49,4,1,4,YES
27,108,27.0,27,0,0.0,0,108,27.0,27,4,1,4,YES
31,124,31.0,31,0,0.0,0,124,31.0,31,4,1,4,YES
83,332,83.0,83,0,0.0,0,332,83.0,83,4,1,4,YES
496,1984,496.0,496,0,0.0,0,1984,496.0,496,4,1,4,YES
32,128,32.0,32,0,0.0,0,128,32.0,32,4,1,4,YES
40,160,40.0,40,0,0.0,0,160,40.0,40,4,1,4,YES
452,1823,165.72727272727272,447,0,0.0,0,1823,165.72727272727272,447,11,2,6,YES
399,1606,321.2,399,0,0.0,0,1606,321.2,399,5,1,5,YES
50,200,50.0,50,0,0.0,0,200,50.0,50,4,1,4,YES
257,1030,171.66666666666666,257,2,0.3333333333333333,1,1028,171.33333333333334,257,6,1,5,YES
124,496,124.0,124,0,0.0,0,496,124.0,124,4,1,4,YES
184,736,184.0,184,0,0.0,0,736,184.0,184,4,1,4,YES
248,992,248.0,248,0,0.0,0,992,248.0,248,4,1,4,YES
26,104,26.0,26,0,0.0,0,104,26.0,26,4,1,4,YES
22,88,22.0,22,0,0.0,0,88,22.0,22,4,1,4,YES
229,916,229.0,229,0,0.0,0,916,229.0,229,4,1,4,YES
311,1252,104.33333333333333,311,8,0.6666666666666666,1,1244,103.66666666666667,311,12,1,10,YES
158,636,159.0,159,0,0.0,0,636,159.0,159,4,1,4,YES
420,1680,420.0,420,0,0.0,0,1680,420.0,420,4,1,4,YES
119,476,119.0,119,0,0.0,0,476,119.0,119,4,1,4,YES
153,612,153.0,153,0,0.0,0,612,153.0,153,4,1,4,YES
51,204,51.0,51,0,0.0,0,204,51.0,51,4,1,4,YES
51,204,51.0,51,0,0.0,0,204,51.0,51,4,1,4,YES
217,876,146.0,217,5,0.8333333333333334,4,871,145.16666666666666,217,6,1,5,YES
41,172,14.333333333333334,41,8,0.6666666666666666,1,164,13.666666666666666,41,12,1,9,YES
28,112,28.0,28,0,0.0,0,112,28.0,28,4,1,4,YES
22,88,22.0,22,0,0.0,0,88,22.0,22,4,1,4,YES
24,96,24.0,24,0,0.0,0,96,24.0,24,4,1,4,YES
27,108,27.0,27,0,0.0,0,108,27.0,27,4,1,4,YES
108,432,108.0,108,0,0.0,0,432,108.0,108,4,1,4,YES
46,184,46.0,46,0,0.0,0,184,46.0,46,4,1,4,YES
53,212,53.0,53,0,0.0,0,212,53.0,53,4,1,4,YES
447,1788,447.0,447,0,0.0,0,1788,447.0,447,4,1,4,YES
386,1560,130.0,382,0,0.0,0,1560,130.0,382,12,2,6,YES
30,120,30.0,30,0,0.0,0,120,30.0,30,4,1,4,YES
41,164,41.0,41,0,0.0,0,164,41.0,41,4,1,4,YES
177,712,89.0,177,4,0.5,1,708,88.5,177,8,1,5,YES
31,124,31.0,31,0,0.0,0,124,31.0,31,4,1,4,YES
22,88,22.0,22,0,0.0,0,88,22.0,22,4,1,4,YES
121,795,41.8421052631579,108,26,1.368421052631579,7,769,40.473684210526315,108,19,0,7,NO
76,582,44.76923076923077,82,50,3.8461538461538463,15,556,42.76923076923077,82,13,0,4,NO
79,632,57.45454545454545,97,72,6.545454545454546,20,628,57.09090909090909,97,11,0,4,NO
70,518,47.09090909090909,73,28,2.5454545454545454,10,502,45.63636363636363,73,11,0,4,NO
32,230,25.555555555555557,32,6,0.6666666666666666,3,224,24.88888888888889,32,9,0,4,NO
113,452,113.0,113,0,0.0,0,452,113.0,113,4,1,4,YES
263,1323,63.0,261,98,4.666666666666667,14,1225,58.333333333333336,261,21,1,11,YES
75,300,75.0,75,0,0.0,0,300,75.0,75,4,1,4,YES
93,372,93.0,93,0,0.0,0,372,93.0,93,4,1,4,YES
52,208,52.0,52,0,0.0,0,208,52.0,52,4,1,4,YES
393,1572,393.0,393,0,0.0,0,1572,393.0,393,4,1,4,YES
59,236,59.0,59,0,0.0,0,236,59.0,59,4,1,4,YES
129,613,76.625,129,92,11.5,23,521,65.125,129,8,2,6,YES
626,2508,627.0,627,0,0.0,0,2508,627.0,627,4,1,4,YES
62,248,62.0,62,0,0.0,0,248,62.0,62,4,1,4,YES
405,1624,406.0,406,0,0.0,0,1624,406.0,406,4,1,4,YES
1158,4636,1159.0,1159,0,0.0,0,4636,1159.0,1159,4,1,4,YES
405,1624,406.0,406,0,0.0,0,1624,406.0,406,4,1,4,YES
607,2432,608.0,608,0,0.0,0,2432,608.0,608,4,1,4,YES
513,2056,514.0,514,0,0.0,0,2056,514.0,514,4,1,4,YES
703,2816,704.0,704,0,0.0,0,2816,704.0,704,4,1,4,YES
1389,5560,1390.0,1390,0,0.0,0,5560,1390.0,1390,4,1,4,YES
878,3516,879.0,879,0,0.0,0,3516,879.0,879,4,1,4,YES
767,3072,768.0,768,0,0.0,0,3072,768.0,768,4,1,4,YES
901,3608,902.0,902,0,0.0,0,3608,902.0,902,4,1,4,YES
751,3008,752.0,752,0,0.0,0,3008,752.0,752,4,1,4,YES
851,3408,852.0,852,0,0.0,0,3408,852.0,852,4,1,4,YES
462,1848,462.0,462,0,0.0,0,1848,462.0,462,4,1,4,YES
2193,8776,2194.0,2194,0,0.0,0,8776,2194.0,2194,4,1,4,YES
62,248,62.0,62,0,0.0,0,248,62.0,62,4,1,4,YES
457,1832,458.0,458,0,0.0,0,1832,458.0,458,4,1,4,YES
405,1624,406.0,406,0,0.0,0,1624,406.0,406,4,1,4,YES
506,2028,507.0,507,0,0.0,0,2028,507.0,507,4,1,4,YES
505,2024,506.0,506,0,0.0,0,2024,506.0,506,4,1,4,YES
1328,5312,1328.0,1328,0,0.0,0,5312,1328.0,1328,4,1,4,YES
2935,11740,2935.0,2935,0,0.0,0,11740,2935.0,2935,4,1,4,YES
713,2856,714.0,714,0,0.0,0,2856,714.0,714,4,1,4,YES
525,2104,526.0,526,0,0.0,0,2104,526.0,526,4,1,4,YES
498,1996,499.0,499,0,0.0,0,1996,499.0,499,4,1,4,YES
387,1548,387.0,387,0,0.0,0,1548,387.0,387,4,1,4,YES
914,3660,915.0,915,0,0.0,0,3660,915.0,915,4,1,4,YES
921,3688,922.0,922,0,0.0,0,3688,922.0,922,4,1,4,YES
421,1688,422.0,422,0,0.0,0,1688,422.0,422,4,1,4,YES
506,2028,507.0,507,0,0.0,0,2028,507.0,507,4,1,4,YES
800,3200,800.0,800,0,0.0,0,3200,800.0,800,4,1,4,YES
405,1624,406.0,406,0,0.0,0,1624,406.0,406,4,1,4,YES
405,1624,406.0,406,0,0.0,0,1624,406.0,406,4,1,4,YES
635,2544,636.0,636,0,0.0,0,2544,636.0,636,4,1,4,YES
640,2560,640.0,640,0,0.0,0,2560,640.0,640,4,1,4,YES
460,1844,461.0,461,0,0.0,0,1844,461.0,461,4,1,4,YES
521,2088,522.0,522,0,0.0,0,2088,522.0,522,4,1,4,YES
465,1864,466.0,466,0,0.0,0,1864,466.0,466,4,1,4,YES
113,452,113.0,113,0,0.0,0,452,113.0,113,4,1,4,YES
405,1624,406.0,406,0,0.0,0,1624,406.0,406,4,1,4,YES
560,2244,561.0,561,0,0.0,0,2244,561.0,561,4,1,4,YES
631,2524,631.0,631,0,0.0,0,2524,631.0,631,4,1,4,YES
405,1624,406.0,406,0,0.0,0,1624,406.0,406,4,1,4,YES
405,1624,406.0,406,0,0.0,0,1624,406.0,406,4,1,4,YES
406,1628,407.0,407,0,0.0,0,1628,407.0,407,4,1,4,YES
457,1832,458.0,458,0,0.0,0,1832,458.0,458,4,1,4,YES
470,1884,471.0,471,0,0.0,0,1884,471.0,471,4,1,4,YES
405,1624,406.0,406,0,0.0,0,1624,406.0,406,4,1,4,YES
804,3220,805.0,805,0,0.0,0,3220,805.0,805,4,1,4,YES
459,1840,460.0,460,0,0.0,0,1840,460.0,460,4,1,4,YES
754,3020,755.0,755,0,0.0,0,3020,755.0,755,4,1,4,YES
555,2224,556.0,556,0,0.0,0,2224,556.0,556,4,1,4,YES
675,2704,676.0,676,0,0.0,0,2704,676.0,676,4,1,4,YES
470,1884,471.0,471,0,0.0,0,1884,471.0,471,4,1,4,YES
474,1900,475.0,475,0,0.0,0,1900,475.0,475,4,1,4,YES
835,3344,836.0,836,0,0.0,0,3344,836.0,836,4,1,4,YES
65,260,65.0,65,0,0.0,0,260,65.0,65,4,1,4,YES
44114,176456,44114.0,44114,0,0.0,0,176456,44114.0,44114,4,1,4,YES
795,3184,796.0,796,0,0.0,0,3184,796.0,796,4,1,4,YES
555,2224,556.0,556,0,0.0,0,2224,556.0,556,4,1,4,YES
405,1624,406.0,406,0,0.0,0,1624,406.0,406,4,1,4,YES
299,1200,300.0,300,0,0.0,0,1200,300.0,300,4,1,4,YES
65,260,65.0,65,0,0.0,0,260,65.0,65,4,1,4,YES
74,296,74.0,74,0,0.0,0,296,74.0,74,4,1,4,YES
630,2524,631.0,631,0,0.0,0,2524,631.0,631,4,1,4,YES
509,2040,510.0,510,0,0.0,0,2040,510.0,510,4,1,4,YES
663,2656,664.0,664,0,0.0,0,2656,664.0,664,4,1,4,YES
566,2268,567.0,567,0,0.0,0,2268,567.0,567,4,1,4,YES
515,2064,516.0,516,0,0.0,0,2064,516.0,516,4,1,4,YES
387,1548,387.0,387,0,0.0,0,1548,387.0,387,4,1,4,YES
406,1628,407.0,407,0,0.0,0,1628,407.0,407,4,1,4,YES
513,2056,514.0,514,0,0.0,0,2056,514.0,514,4,1,4,YES
916,3668,917.0,917,0,0.0,0,3668,917.0,917,4,1,4,YES
513,2056,514.0,514,0,0.0,0,2056,514.0,514,4,1,4,YES
1381,5528,1382.0,1382,0,0.0,0,5528,1382.0,1382,4,1,4,YES
961,3848,962.0,962,0,0.0,0,3848,962.0,962,4,1,4,YES
553,2216,554.0,554,0,0.0,0,2216,554.0,554,4,1,4,YES
532,2132,533.0,533,0,0.0,0,2132,533.0,533,4,1,4,YES
1445,5784,1446.0,1446,0,0.0,0,5784,1446.0,1446,4,1,4,YES
1264,5060,1265.0,1265,0,0.0,0,5060,1265.0,1265,4,1,4,YES
515,2064,516.0,516,0,0.0,0,2064,516.0,516,4,1,4,YES
387,1548,387.0,387,0,0.0,0,1548,387.0,387,4,1,4,YES
460,1844,461.0,461,0,0.0,0,1844,461.0,461,4,1,4,YES
2143,8576,2144.0,2144,0,0.0,0,8576,2144.0,2144,4,1,4,YES
62,248,62.0,62,0,0.0,0,248,62.0,62,4,1,4,YES
2596,10388,2597.0,2597,0,0.0,0,10388,2597.0,2597,4,1,4,YES
1093,4376,1094.0,1094,0,0.0,0,4376,1094.0,1094,4,1,4,YES
68,272,68.0,68,0,0.0,0,272,68.0,68,4,1,4,YES
1900,7604,1901.0,1901,0,0.0,0,7604,1901.0,1901,4,1,4,YES
604,2420,605.0,605,0,0.0,0,2420,605.0,605,4,1,4,YES
43,172,43.0,43,0,0.0,0,172,43.0,43,4,1,4,YES
77,308,77.0,77,0,0.0,0,308,77.0,77,4,1,4,YES
24,96,24.0,24,0,0.0,0,96,24.0,24,4,1,4,YES
76,304,76.0,76,0,0.0,0,304,76.0,76,4,1,4,YES
64,256,64.0,64,0,0.0,0,256,64.0,64,4,1,4,YES
106,424,106.0,106,0,0.0,0,424,106.0,106,4,1,4,YES
65,260,65.0,65,0,0.0,0,260,65.0,65,4,1,4,YES
61,244,61.0,61,0,0.0,0,244,61.0,61,4,1,4,YES
51,204,51.0,51,0,0.0,0,204,51.0,51,4,1,4,YES
38,152,38.0,38,0,0.0,0,152,38.0,38,4,1,4,YES
44,176,44.0,44,0,0.0,0,176,44.0,44,4,1,4,YES
32,160,20.0,32,0,0.0,0,160,20.0,32,8,1,6,YES
32,160,20.0,32,0,0.0,0,160,20.0,32,8,1,6,YES
32,160,20.0,32,0,0.0,0,160,20.0,32,8,1,6,YES
35,176,22.0,35,0,0.0,0,176,22.0,35,8,1,6,YES
30,156,19.5,30,0,0.0,0,156,19.5,30,8,1,6,YES
30,156,19.5,30,0,0.0,0,156,19.5,30,8,1,6,YES
44,176,44.0,44,0,0.0,0,176,44.0,44,4,1,4,YES
130,520,130.0,130,0,0.0,0,520,130.0,130,4,1,4,YES
140,560,140.0,140,0,0.0,0,560,140.0,140,4,1,4,YES
101,404,101.0,101,0,0.0,0,404,101.0,101,4,1,4,YES
695,2780,695.0,695,0,0.0,0,2780,695.0,695,4,1,4,YES
27,194,13.857142857142858,27,41,2.9285714285714284,9,159,11.357142857142858,27,14,1,9,YES
52,208,52.0,52,0,0.0,0,208,52.0,52,4,1,4,YES
49,196,49.0,49,0,0.0,0,196,49.0,49,4,1,4,YES
60,240,60.0,60,0,0.0,0,240,60.0,60,4,1,4,YES
63,252,63.0,63,0,0.0,0,252,63.0,63,4,1,4,YES
31,124,31.0,31,0,0.0,0,124,31.0,31,4,1,4,YES
59,236,59.0,59,0,0.0,0,236,59.0,59,4,1,4,YES
53,212,53.0,53,0,0.0,0,212,53.0,53,4,1,4,YES
57,228,57.0,57,0,0.0,0,228,57.0,57,4,1,4,YES
164,656,164.0,164,0,0.0,0,656,164.0,164,4,1,4,YES
612,2597,185.5,578,13,0.9285714285714286,8,2598,185.57142857142858,578,14,2,8,YES
113,452,113.0,113,0,0.0,0,452,113.0,113,4,1,4,YES
75,300,75.0,75,0,0.0,0,300,75.0,75,4,1,4,YES
26,104,26.0,26,0,0.0,0,104,26.0,26,4,1,4,YES
28,112,28.0,28,0,0.0,0,112,28.0,28,4,1,4,YES
26,104,26.0,26,0,0.0,0,104,26.0,26,4,1,4,YES
26,104,26.0,26,0,0.0,0,104,26.0,26,4,1,4,YES
152,608,152.0,152,0,0.0,0,608,152.0,152,4,1,4,YES
202,813,90.33333333333333,203,6,0.6666666666666666,2,815,90.55555555555556,203,9,2,6,YES
31,124,31.0,31,0,0.0,0,124,31.0,31,4,1,4,YES
209,841,93.44444444444444,210,6,0.6666666666666666,2,843,93.66666666666667,210,9,2,6,YES
30,120,30.0,30,0,0.0,0,120,30.0,30,4,1,4,YES
133,532,133.0,133,0,0.0,0,532,133.0,133,4,1,4,YES
411,2057,342.8333333333333,411,2,0.3333333333333333,2,2055,342.5,411,6,1,4,YES
118,472,118.0,118,0,0.0,0,472,118.0,118,4,1,4,YES
58,232,58.0,58,0,0.0,0,232,58.0,58,4,1,4,YES
144,576,144.0,144,0,0.0,0,576,144.0,144,4,1,4,YES
43,172,43.0,43,0,0.0,0,172,43.0,43,4,1,4,YES
56,224,56.0,56,0,0.0,0,224,56.0,56,4,1,4,YES
35,140,35.0,35,0,0.0,0,140,35.0,35,4,1,4,YES
114,456,114.0,114,0,0.0,0,456,114.0,114,4,1,4,YES
154,616,154.0,154,0,0.0,0,616,154.0,154,4,1,4,YES
31,124,31.0,31,0,0.0,0,124,31.0,31,4,1,4,YES
157,628,157.0,157,0,0.0,0,628,157.0,157,4,1,4,YES
30,120,30.0,30,0,0.0,0,120,30.0,30,4,1,4,YES
158,632,158.0,158,0,0.0,0,632,158.0,158,4,1,4,YES
83,332,83.0,83,0,0.0,0,332,83.0,83,4,1,4,YES
153,612,153.0,153,0,0.0,0,612,153.0,153,4,1,4,YES
68,272,68.0,68,0,0.0,0,272,68.0,68,4,1,4,YES
273,1092,273.0,273,0,0.0,0,1092,273.0,273,4,1,4,YES
91,364,91.0,91,0,0.0,0,364,91.0,91,4,1,4,YES
56,224,56.0,56,0,0.0,0,224,56.0,56,4,1,4,YES
74,296,74.0,74,0,0.0,0,296,74.0,74,4,1,4,YES
57,228,57.0,57,0,0.0,0,228,57.0,57,4,1,4,YES
67,268,67.0,67,0,0.0,0,268,67.0,67,4,1,4,YES
149,628,39.25,132,136,8.5,14,632,39.5,132,16,1,12,YES
85,340,85.0,85,0,0.0,0,340,85.0,85,4,1,4,YES
118,472,118.0,118,0,0.0,0,472,118.0,118,4,1,4,YES
70,280,70.0,70,0,0.0,0,280,70.0,70,4,1,4,YES
76,304,76.0,76,0,0.0,0,304,76.0,76,4,1,4,YES
63,252,63.0,63,0,0.0,0,252,63.0,63,4,1,4,YES
165,660,165.0,165,0,0.0,0,660,165.0,165,4,1,4,YES
34,136,34.0,34,0,0.0,0,136,34.0,34,4,1,4,YES
38,152,38.0,38,0,0.0,0,152,38.0,38,4,1,4,YES
39,156,39.0,39,0,0.0,0,156,39.0,39,4,1,4,YES
23,92,23.0,23,0,0.0,0,92,23.0,23,4,1,4,YES
22,88,22.0,22,0,0.0,0,88,22.0,22,4,1,4,YES
60,240,60.0,60,0,0.0,0,240,60.0,60,4,1,4,YES
24,96,24.0,24,0,0.0,0,96,24.0,24,4,1,4,YES
22,88,22.0,22,0,0.0,0,88,22.0,22,4,1,4,YES
53,212,53.0,53,0,0.0,0,212,53.0,53,4,1,4,YES
45,180,45.0,45,0,0.0,0,180,45.0,45,4,1,4,YES
50,200,50.0,50,0,0.0,0,200,50.0,50,4,1,4,YES
38,152,38.0,38,0,0.0,0,152,38.0,38,4,1,4,YES
31,124,31.0,31,0,0.0,0,124,31.0,31,4,1,4,YES
30,120,30.0,30,0,0.0,0,120,30.0,30,4,1,4,YES
31,124,31.0,31,0,0.0,0,124,31.0,31,4,1,4,YES
37,148,37.0,37,0,0.0,0,148,37.0,37,4,1,4,YES
31,124,31.0,31,0,0.0,0,124,31.0,31,4,1,4,YES
32,128,32.0,32,0,0.0,0,128,32.0,32,4,1,4,YES
211,844,211.0,211,0,0.0,0,844,211.0,211,4,1,4,YES
262,1048,262.0,262,0,0.0,0,1048,262.0,262,4,1,4,YES
27,108,27.0,27,0,0.0,0,108,27.0,27,4,1,4,YES
112,448,112.0,112,0,0.0,0,448,112.0,112,4,1,4,YES
109,436,109.0,109,0,0.0,0,436,109.0,109,4,1,4,YES
165,660,110.0,165,52,8.666666666666666,26,712,118.66666666666667,165,6,2,5,YES
79,316,79.0,79,0,0.0,0,316,79.0,79,4,1,4,YES
82,328,82.0,82,0,0.0,0,328,82.0,82,4,1,4,YES
204,816,204.0,204,0,0.0,0,816,204.0,204,4,1,4,YES
40,160,40.0,40,0,0.0,0,160,40.0,40,4,1,4,YES
184,736,184.0,184,0,0.0,0,736,184.0,184,4,1,4,YES
50,200,50.0,50,0,0.0,0,200,50.0,50,4,1,4,YES
96,384,96.0,96,0,0.0,0,384,96.0,96,4,1,4,YES
49,196,49.0,49,0,0.0,0,196,49.0,49,4,1,4,YES
52,208,52.0,52,0,0.0,0,208,52.0,52,4,1,4,YES
31,124,31.0,31,0,0.0,0,124,31.0,31,4,1,4,YES
72,304,38.0,73,12,1.5,3,292,36.5,73,8,1,6,YES
43,172,43.0,43,0,0.0,0,172,43.0,43,4,1,4,YES
28,112,28.0,28,0,0.0,0,112,28.0,28,4,1,4,YES
116,464,116.0,116,0,0.0,0,464,116.0,116,4,1,4,YES
25,154,15.4,25,4,0.4,1,150,15.0,25,10,1,7,YES
270,1776,71.04,255,131,5.24,23,1647,65.88,255,25,1,13,YES
75,458,45.8,75,8,0.8,2,450,45.0,75,10,1,7,YES
163,1013,92.0909090909091,163,30,2.727272727272727,10,983,89.36363636363636,163,11,1,7,YES
76,478,43.45454545454545,76,23,2.090909090909091,5,457,41.54545454545455,76,11,1,7,YES
110,692,62.90909090909091,110,30,2.727272727272727,7,662,60.18181818181818,110,11,1,7,YES
94,576,57.6,94,12,1.2,3,564,56.4,94,10,1,7,YES
99,626,56.90909090909091,99,30,2.727272727272727,7,596,54.18181818181818,99,11,1,7,YES
25,100,25.0,25,0,0.0,0,100,25.0,25,4,1,4,YES
25,100,25.0,25,0,0.0,0,100,25.0,25,4,1,4,YES
33,132,33.0,33,0,0.0,0,132,33.0,33,4,1,4,YES
711,3059,179.94117647058823,712,132,7.764705882352941,13,2941,173.0,712,17,1,9,YES
54,216,54.0,54,0,0.0,0,216,54.0,54,4,1,4,YES
49,196,49.0,49,0,0.0,0,196,49.0,49,4,1,4,YES
40,160,40.0,40,0,0.0,0,160,40.0,40,4,1,4,YES
45,180,45.0,45,0,0.0,0,180,45.0,45,4,1,4,YES
61,253,25.3,61,0,0.0,0,253,25.3,61,10,1,7,YES
119,518,51.8,119,0,0.0,0,518,51.8,119,10,1,7,YES
132,528,132.0,132,0,0.0,0,528,132.0,132,4,1,4,YES
87,371,41.22222222222222,84,20,2.2222222222222223,4,351,39.0,84,9,1,6,YES
515,2076,138.4,515,11,0.7333333333333333,1,2065,137.66666666666666,515,15,2,9,YES
81,402,33.5,81,66,5.5,10,336,28.0,81,12,1,7,YES
219,876,219.0,219,0,0.0,0,876,219.0,219,4,1,4,YES
125,500,125.0,125,0,0.0,0,500,125.0,125,4,1,4,YES
363,1452,363.0,363,0,0.0,0,1452,363.0,363,4,1,4,YES
98,392,98.0,98,0,0.0,0,392,98.0,98,4,1,4,YES
340,1360,340.0,340,0,0.0,0,1360,340.0,340,4,1,4,YES
296,1184,296.0,296,0,0.0,0,1184,296.0,296,4,1,4,YES
54,216,54.0,54,0,0.0,0,216,54.0,54,4,1,4,YES
518,3157,263.0833333333333,528,1115,92.91666666666667,178,2194,182.83333333333334,528,12,1,7,YES
138,940,85.45454545454545,160,454,41.27272727272727,75,802,72.9090909090909,160,11,1,7,YES
426,2214,138.375,446,434,27.125,79,1980,123.75,446,16,1,8,YES
184,736,184.0,184,0,0.0,0,736,184.0,184,4,1,4,YES
116,464,116.0,116,0,0.0,0,464,116.0,116,4,1,4,YES
56,280,56.0,56,0,0.0,0,280,56.0,56,5,0,3,NO
40,160,40.0,40,0,0.0,0,160,40.0,40,4,1,4,YES
350,1457,161.88888888888889,348,55,6.111111111111111,11,1402,155.77777777777777,348,9,1,6,YES
126,529,58.77777777777778,126,25,2.7777777777777777,5,504,56.0,126,9,1,6,YES
42,198,22.0,47,35,3.888888888888889,7,213,23.666666666666668,47,9,1,6,YES
80,344,38.22222222222222,81,25,2.7777777777777777,5,329,36.55555555555556,81,9,1,6,YES
36,174,19.333333333333332,41,35,3.888888888888889,7,189,21.0,41,9,1,6,YES
463,2491,146.52941176470588,488,697,41.0,76,2078,122.23529411764706,488,17,1,8,YES
47,234,14.625,50,59,3.6875,8,235,14.6875,50,16,1,8,YES
47,188,47.0,47,0,0.0,0,188,47.0,47,4,1,4,YES
76,760,76.0,76,0,0.0,0,760,76.0,76,10,0,7,NO
94,942,85.63636363636364,94,2,0.18181818181818182,2,940,85.45454545454545,94,11,0,7,NO
388,1908,119.25,348,63,3.9375,63,1845,115.3125,348,16,1,10,YES
96,384,96.0,96,0,0.0,0,384,96.0,96,4,1,4,YES
42,168,42.0,42,0,0.0,0,168,42.0,42,4,1,4,YES
53,212,53.0,53,0,0.0,0,212,53.0,53,4,1,4,YES
55,220,55.0,55,0,0.0,0,220,55.0,55,4,1,4,YES
40,160,40.0,40,0,0.0,0,160,40.0,40,4,1,4,YES
42,168,42.0,42,0,0.0,0,168,42.0,42,4,1,4,YES
48,192,48.0,48,0,0.0,0,192,48.0,48,4,1,4,YES
41,164,41.0,41,0,0.0,0,164,41.0,41,4,1,4,YES
57,228,57.0,57,0,0.0,0,228,57.0,57,4,1,4,YES
45,180,45.0,45,0,0.0,0,180,45.0,45,4,1,4,YES
29,116,29.0,29,0,0.0,0,116,29.0,29,4,1,4,YES
154,616,154.0,154,0,0.0,0,616,154.0,154,4,1,4,YES
174,696,174.0,174,0,0.0,0,696,174.0,174,4,1,4,YES
94,376,94.0,94,0,0.0,0,376,94.0,94,4,1,4,YES
163,650,92.85714285714286,161,0,0.0,0,650,92.85714285714286,161,7,1,6,YES
53,212,53.0,53,0,0.0,0,212,53.0,53,4,1,4,YES
82,342,42.75,82,8,1.0,2,334,41.75,82,8,2,6,YES
116,470,58.75,116,4,0.5,1,466,58.25,116,8,2,6,YES
83,336,21.0,77,10,0.625,1,326,20.375,77,16,1,12,YES
78,312,78.0,78,0,0.0,0,312,78.0,78,4,1,4,YES
63,252,63.0,63,0,0.0,0,252,63.0,63,4,1,4,YES
174,696,174.0,174,0,0.0,0,696,174.0,174,4,1,4,YES
47,188,47.0,47,0,0.0,0,188,47.0,47,4,1,4,YES
172,688,172.0,172,0,0.0,0,688,172.0,172,4,1,4,YES
47,188,47.0,47,0,0.0,0,188,47.0,47,4,1,4,YES
167,668,167.0,167,0,0.0,0,668,167.0,167,4,1,4,YES
60,240,60.0,60,0,0.0,0,240,60.0,60,4,1,4,YES
58,482,34.42857142857143,108,550,39.285714285714285,55,932,66.57142857142857,108,14,1,9,YES
68,272,68.0,68,0,0.0,0,272,68.0,68,4,1,4,YES
85,608,43.42857142857143,132,550,39.285714285714285,55,998,71.28571428571429,132,14,1,9,YES
269,1416,94.4,277,396,26.4,36,1196,79.73333333333333,277,15,1,9,YES
112,498,33.2,108,22,1.4666666666666666,2,476,31.733333333333334,108,15,1,9,YES
44,176,44.0,44,0,0.0,0,176,44.0,44,4,1,4,YES
104,416,104.0,104,0,0.0,0,416,104.0,104,4,1,4,YES
210,851,94.55555555555556,210,11,1.2222222222222223,4,840,93.33333333333333,210,9,2,6,YES
54,216,54.0,54,0,0.0,0,216,54.0,54,4,1,4,YES
96,384,96.0,96,0,0.0,0,384,96.0,96,4,1,4,YES
31,367,30.583333333333332,80,57,4.75,56,408,34.0,80,12,0,7,NO
71,731,56.23076923076923,80,21,1.6153846153846154,13,732,56.30769230769231,80,13,0,7,NO
55,615,51.25,108,65,5.416666666666667,63,670,55.833333333333336,108,12,0,7,NO
158,1587,132.25,158,7,0.5833333333333334,6,1580,131.66666666666666,158,12,0,7,NO
92,459,41.72727272727273,92,91,8.272727272727273,13,368,33.45454545454545,92,11,1,8,YES
64,256,64.0,64,0,0.0,0,256,64.0,64,4,1,4,YES
58,232,58.0,58,0,0.0,0,232,58.0,58,4,1,4,YES
65,260,65.0,65,0,0.0,0,260,65.0,65,4,1,4,YES
64,256,64.0,64,0,0.0,0,256,64.0,64,4,1,4,YES
64,256,64.0,64,0,0.0,0,256,64.0,64,4,1,4,YES
56,224,56.0,56,0,0.0,0,224,56.0,56,4,1,4,YES
23,92,23.0,23,0,0.0,0,92,23.0,23,4,1,4,YES
40,160,40.0,40,0,0.0,0,160,40.0,40,4,1,4,YES
24,96,24.0,24,0,0.0,0,96,24.0,24,4,1,4,YES
26,104,26.0,26,0,0.0,0,104,26.0,26,4,1,4,YES
56,224,56.0,56,0,0.0,0,224,56.0,56,4,1,4,YES
60,240,60.0,60,0,0.0,0,240,60.0,60,4,1,4,YES
50,200,50.0,50,0,0.0,0,200,50.0,50,4,1,4,YES
58,232,58.0,58,0,0.0,0,232,58.0,58,4,1,4,YES
61,244,61.0,61,0,0.0,0,244,61.0,61,4,1,4,YES
35,140,35.0,35,0,0.0,0,140,35.0,35,4,1,4,YES
225,1056,44.0,223,11,0.4583333333333333,1,1047,43.625,223,24,1,13,YES
52,208,52.0,52,0,0.0,0,208,52.0,52,4,1,4,YES
32,128,32.0,32,0,0.0,0,128,32.0,32,4,1,4,YES
32,128,32.0,32,0,0.0,0,128,32.0,32,4,1,4,YES
32,128,32.0,32,0,0.0,0,128,32.0,32,4,1,4,YES
32,128,32.0,32,0,0.0,0,128,32.0,32,4,1,4,YES
172,688,172.0,172,0,0.0,0,688,172.0,172,4,1,4,YES
232,928,232.0,232,0,0.0,0,928,232.0,232,4,1,4,YES
23,92,23.0,23,0,0.0,0,92,23.0,23,4,1,4,YES
24,96,24.0,24,0,0.0,0,96,24.0,24,4,1,4,YES
105,420,105.0,105,0,0.0,0,420,105.0,105,4,1,4,YES
31,128,32.0,32,0,0.0,0,128,32.0,32,4,1,4,YES
34,136,34.0,34,0,0.0,0,136,34.0,34,4,1,4,YES
29,116,29.0,29,0,0.0,0,116,29.0,29,4,1,4,YES
31,124,31.0,31,0,0.0,0,124,31.0,31,4,1,4,YES
40,160,40.0,40,0,0.0,0,160,40.0,40,4,1,4,YES
37,148,37.0,37,0,0.0,0,148,37.0,37,4,1,4,YES
29,116,29.0,29,0,0.0,0,116,29.0,29,4,1,4,YES
42,168,42.0,42,0,0.0,0,168,42.0,42,4,1,4,YES
280,1120,280.0,280,0,0.0,0,1120,280.0,280,4,1,4,YES
41,164,41.0,41,0,0.0,0,164,41.0,41,4,1,4,YES
139,556,139.0,139,0,0.0,0,556,139.0,139,4,1,4,YES
65,260,65.0,65,0,0.0,0,260,65.0,65,4,1,4,YES
29,116,29.0,29,0,0.0,0,116,29.0,29,4,1,4,YES
22,88,22.0,22,0,0.0,0,88,22.0,22,4,1,4,YES
25,100,25.0,25,0,0.0,0,100,25.0,25,4,1,4,YES
24,96,24.0,24,0,0.0,0,96,24.0,24,4,1,4,YES
114,456,114.0,114,0,0.0,0,456,114.0,114,4,1,4,YES
43,172,43.0,43,0,0.0,0,172,43.0,43,4,1,4,YES
48,192,48.0,48,0,0.0,0,192,48.0,48,4,1,4,YES
30,120,30.0,30,0,0.0,0,120,30.0,30,4,1,4,YES
55,220,55.0,55,0,0.0,0,220,55.0,55,4,1,4,YES
69,276,69.0,69,0,0.0,0,276,69.0,69,4,1,4,YES
38,156,19.5,38,4,0.5,1,152,19.0,38,8,1,5,YES
28,112,28.0,28,0,0.0,0,112,28.0,28,4,1,4,YES
30,120,30.0,30,0,0.0,0,120,30.0,30,4,1,4,YES
199,796,199.0,199,0,0.0,0,796,199.0,199,4,1,4,YES
84,336,84.0,84,0,0.0,0,336,84.0,84,4,1,4,YES
22,88,22.0,22,0,0.0,0,88,22.0,22,4,1,4,YES
31,124,31.0,31,0,0.0,0,124,31.0,31,4,1,4,YES
33,136,11.333333333333334,32,0,0.0,0,136,11.333333333333334,32,12,2,6,YES
236,988,70.57142857142857,225,0,0.0,0,988,70.57142857142857,225,14,2,7,YES
406,1624,406.0,406,0,0.0,0,1624,406.0,406,4,1,4,YES
389,1556,389.0,389,0,0.0,0,1556,389.0,389,4,1,4,YES
106,424,106.0,106,0,0.0,0,424,106.0,106,4,1,4,YES
25,100,25.0,25,0,0.0,0,100,25.0,25,4,1,4,YES
52,208,52.0,52,0,0.0,0,208,52.0,52,4,1,4,YES
52,208,52.0,52,0,0.0,0,208,52.0,52,4,1,4,YES
65,260,65.0,65,0,0.0,0,260,65.0,65,4,1,4,YES
72,288,72.0,72,0,0.0,0,288,72.0,72,4,1,4,YES
39,156,39.0,39,0,0.0,0,156,39.0,39,4,1,4,YES
48,192,48.0,48,0,0.0,0,192,48.0,48,4,1,4,YES
42,168,42.0,42,0,0.0,0,168,42.0,42,4,1,4,YES
87,348,87.0,87,0,0.0,0,348,87.0,87,4,1,4,YES
55,220,55.0,55,0,0.0,0,220,55.0,55,4,1,4,YES
57,228,57.0,57,0,0.0,0,228,57.0,57,4,1,4,YES
100,400,100.0,100,0,0.0,0,400,100.0,100,4,1,4,YES
42,168,42.0,42,0,0.0,0,168,42.0,42,4,1,4,YES
179,716,179.0,179,0,0.0,0,716,179.0,179,4,1,4,YES
100,400,100.0,100,0,0.0,0,400,100.0,100,4,1,4,YES
42,168,42.0,42,0,0.0,0,168,42.0,42,4,1,4,YES
38,152,38.0,38,0,0.0,0,152,38.0,38,4,1,4,YES
61,244,61.0,61,0,0.0,0,244,61.0,61,4,1,4,YES
24,96,24.0,24,0,0.0,0,96,24.0,24,4,1,4,YES
61,244,61.0,61,0,0.0,0,244,61.0,61,4,1,4,YES
180,720,180.0,180,0,0.0,0,720,180.0,180,4,1,4,YES
38,152,38.0,38,0,0.0,0,152,38.0,38,4,1,4,YES
57,241,48.2,57,1,0.2,1,240,48.0,57,5,1,5,YES
51,204,51.0,51,0,0.0,0,204,51.0,51,4,1,4,YES
60,240,60.0,60,0,0.0,0,240,60.0,60,4,1,4,YES
50,211,14.066666666666666,50,33,2.2,3,222,14.8,50,15,1,9,YES
51,204,51.0,51,0,0.0,0,204,51.0,51,4,1,4,YES
186,744,186.0,186,0,0.0,0,744,186.0,186,4,1,4,YES
52,208,52.0,52,0,0.0,0,208,52.0,52,4,1,4,YES
49,295,19.666666666666668,49,55,3.6666666666666665,5,240,16.0,49,15,1,9,YES
52,274,18.266666666666666,52,22,1.4666666666666666,2,252,16.8,52,15,1,9,YES
40,160,22.857142857142858,37,3,0.42857142857142855,1,157,22.428571428571427,37,7,1,6,YES
111,444,111.0,111,0,0.0,0,444,111.0,111,4,1,4,YES
63,252,63.0,63,0,0.0,0,252,63.0,63,4,1,4,YES
62,248,62.0,62,0,0.0,0,248,62.0,62,4,1,4,YES
139,556,139.0,139,0,0.0,0,556,139.0,139,4,1,4,YES
76,304,76.0,76,0,0.0,0,304,76.0,76,4,1,4,YES
60,240,60.0,60,0,0.0,0,240,60.0,60,4,1,4,YES
43,172,43.0,43,0,0.0,0,172,43.0,43,4,1,4,YES
31,124,31.0,31,0,0.0,0,124,31.0,31,4,1,4,YES
45,180,45.0,45,0,0.0,0,180,45.0,45,4,1,4,YES
85,340,85.0,85,0,0.0,0,340,85.0,85,4,1,4,YES
37,148,37.0,37,0,0.0,0,148,37.0,37,4,1,4,YES
27,108,27.0,27,0,0.0,0,108,27.0,27,4,1,4,YES
65,260,65.0,65,0,0.0,0,260,65.0,65,4,1,4,YES
86,344,86.0,86,0,0.0,0,344,86.0,86,4,1,4,YES
34,136,34.0,34,0,0.0,0,136,34.0,34,4,1,4,YES
83,332,83.0,83,0,0.0,0,332,83.0,83,4,1,4,YES
83,332,83.0,83,0,0.0,0,332,83.0,83,4,1,4,YES
67,268,67.0,67,0,0.0,0,268,67.0,67,4,1,4,YES
72,330,20.625,62,2,0.125,1,328,20.5,62,16,2,7,YES
26,104,26.0,26,0,0.0,0,104,26.0,26,4,1,4,YES
246,1081,72.06666666666666,250,117,7.8,13,1036,69.06666666666666,250,15,2,6,YES
29,134,13.4,32,24,2.4,4,146,14.6,32,10,2,6,YES
36,144,36.0,36,0,0.0,0,144,36.0,36,4,1,4,YES
33,132,33.0,33,0,0.0,0,132,33.0,33,4,1,4,YES
29,124,10.333333333333334,27,0,0.0,0,124,10.333333333333334,27,12,2,6,YES
44,176,44.0,44,0,0.0,0,176,44.0,44,4,1,4,YES
29,116,29.0,29,0,0.0,0,116,29.0,29,4,1,4,YES
29,116,29.0,29,0,0.0,0,116,29.0,29,4,1,4,YES
25,100,25.0,25,0,0.0,0,100,25.0,25,4,1,4,YES
31,158,12.153846153846153,26,9,0.6923076923076923,1,149,11.461538461538462,26,13,2,6,YES
56,224,56.0,56,0,0.0,0,224,56.0,56,4,1,4,YES
26,130,26.0,26,0,0.0,0,130,26.0,26,5,0,4,NO
40,160,40.0,40,0,0.0,0,160,40.0,40,4,1,4,YES
184,736,184.0,184,0,0.0,0,736,184.0,184,4,1,4,YES
32,128,32.0,32,0,0.0,0,128,32.0,32,4,1,4,YES
53,212,53.0,53,0,0.0,0,212,53.0,53,4,1,4,YES
36,144,36.0,36,0,0.0,0,144,36.0,36,4,1,4,YES
28,168,24.0,28,0,0.0,0,168,24.0,28,7,1,2,NO
22,88,22.0,22,0,0.0,0,88,22.0,22,4,1,4,YES
179,937,72.07692307692308,151,81,6.230769230769231,9,856,65.84615384615384,151,13,2,6,YES
372,1860,372.0,372,0,0.0,0,1860,372.0,372,5,0,4,NO
532,2258,77.86206896551724,524,62,2.1379310344827585,5,2196,75.72413793103448,524,29,2,13,YES
337,1393,154.77777777777777,337,16,1.7777777777777777,4,1377,153.0,337,9,1,6,YES
33,132,33.0,33,0,0.0,0,132,33.0,33,4,1,4,YES
24,96,24.0,24,0,0.0,0,96,24.0,24,4,1,4,YES
28,112,28.0,28,0,0.0,0,112,28.0,28,4,1,4,YES
25,100,25.0,25,0,0.0,0,100,25.0,25,4,1,4,YES
25,100,25.0,25,0,0.0,0,100,25.0,25,4,1,4,YES
26,104,26.0,26,0,0.0,0,104,26.0,26,4,1,4,YES
46,184,46.0,46,0,0.0,0,184,46.0,46,4,1,4,YES
64,256,64.0,64,0,0.0,0,256,64.0,64,4,1,4,YES
150,750,150.0,150,0,0.0,0,750,150.0,150,5,0,4,NO
24,96,24.0,24,0,0.0,0,96,24.0,24,4,1,4,YES
24,96,24.0,24,0,0.0,0,96,24.0,24,4,1,4,YES
211,851,94.55555555555556,212,8,0.8888888888888888,2,851,94.55555555555556,212,9,1,6,YES
26,104,26.0,26,0,0.0,0,104,26.0,26,4,1,4,YES
31,124,31.0,31,0,0.0,0,124,31.0,31,4,1,4,YES
94,376,94.0,94,0,0.0,0,376,94.0,94,4,1,4,YES
61,244,61.0,61,0,0.0,0,244,61.0,61,4,1,4,YES
96,384,96.0,96,0,0.0,0,384,96.0,96,4,1,4,YES
217,868,217.0,217,0,0.0,0,868,217.0,217,4,1,4,YES
521,2084,521.0,521,0,0.0,0,2084,521.0,521,4,1,4,YES
56,224,56.0,56,0,0.0,0,224,56.0,56,4,1,4,YES
69,276,69.0,69,0,0.0,0,276,69.0,69,4,1,4,YES
160,640,160.0,160,0,0.0,0,640,160.0,160,4,1,4,YES
142,568,142.0,142,0,0.0,0,568,142.0,142,4,1,4,YES
149,596,149.0,149,0,0.0,0,596,149.0,149,4,1,4,YES
47,188,47.0,47,0,0.0,0,188,47.0,47,4,1,4,YES
173,692,173.0,173,0,0.0,0,692,173.0,173,4,1,4,YES
30,120,30.0,30,0,0.0,0,120,30.0,30,4,1,4,YES
857,5553,95.74137931034483,561,530,9.137931034482758,30,5107,88.05172413793103,561,58,3,15,YES
59,298,27.09090909090909,40,24,2.1818181818181817,4,274,24.90909090909091,40,11,2,6,YES
912,3857,192.85,827,39,1.95,6,3828,191.4,827,20,2,8,YES
121,484,121.0,121,0,0.0,0,484,121.0,121,4,1,4,YES
183,732,183.0,183,0,0.0,0,732,183.0,183,4,1,4,YES
32,128,32.0,32,0,0.0,0,128,32.0,32,4,1,4,YES
32,128,32.0,32,0,0.0,0,128,32.0,32,4,1,4,YES
26,104,26.0,26,0,0.0,0,104,26.0,26,4,1,4,YES
174,696,174.0,174,0,0.0,0,696,174.0,174,4,1,4,YES
31,124,31.0,31,0,0.0,0,124,31.0,31,4,1,4,YES
24,96,24.0,24,0,0.0,0,96,24.0,24,4,1,4,YES
38,190,19.0,34,30,3.0,5,160,16.0,34,10,1,7,YES
119,476,119.0,119,0,0.0,0,476,119.0,119,4,1,4,YES
104,471,42.81818181818182,84,15,1.3636363636363635,9,460,41.81818181818182,84,11,2,6,YES
26,104,26.0,26,0,0.0,0,104,26.0,26,4,1,4,YES
45,204,22.666666666666668,45,4,0.4444444444444444,4,200,22.22222222222222,45,9,1,5,YES
23,92,23.0,23,0,0.0,0,92,23.0,23,4,1,4,YES
23,92,23.0,23,0,0.0,0,92,23.0,23,4,1,4,YES
23,92,23.0,23,0,0.0,0,92,23.0,23,4,1,4,YES
33,132,33.0,33,0,0.0,0,132,33.0,33,4,1,4,YES
47,204,22.666666666666668,47,1,0.1111111111111111,1,203,22.555555555555557,47,9,1,5,YES
29,116,29.0,29,0,0.0,0,116,29.0,29,4,1,4,YES
35,315,35.0,35,0,0.0,0,315,35.0,35,9,1,5,YES
66,402,57.42857142857143,66,6,0.8571428571428571,6,396,56.57142857142857,66,7,1,2,NO
22,88,22.0,22,0,0.0,0,88,22.0,22,4,1,4,YES
48,219,24.333333333333332,48,3,0.3333333333333333,3,216,24.0,48,9,1,5,YES
37,299,33.22222222222222,37,3,0.3333333333333333,3,296,32.888888888888886,37,9,0,6,NO
92,440,48.888888888888886,92,4,0.4444444444444444,4,436,48.44444444444444,92,9,1,5,YES
31,124,31.0,31,0,0.0,0,124,31.0,31,4,1,4,YES
32,192,27.428571428571427,32,0,0.0,0,192,27.428571428571427,32,7,1,2,NO
36,292,32.44444444444444,36,4,0.4444444444444444,4,288,32.0,36,9,0,6,NO
31,124,31.0,31,0,0.0,0,124,31.0,31,4,1,4,YES
46,206,20.6,46,2,0.2,1,204,20.4,46,10,1,5,YES
26,104,26.0,26,0,0.0,0,104,26.0,26,4,1,4,YES
52,237,26.333333333333332,52,3,0.3333333333333333,3,234,26.0,52,9,1,5,YES
36,144,36.0,36,0,0.0,0,144,36.0,36,4,1,4,YES
65,260,65.0,65,0,0.0,0,260,65.0,65,4,1,4,YES
91,1096,78.28571428571429,91,4,0.2857142857142857,2,1092,78.0,91,14,0,7,NO
41,164,41.0,41,0,0.0,0,164,41.0,41,4,1,4,YES
48,209,14.928571428571429,46,6,0.42857142857142855,1,203,14.5,46,14,1,8,YES
38,152,38.0,38,0,0.0,0,152,38.0,38,4,1,4,YES
35,144,18.0,35,0,0.0,0,144,18.0,35,8,1,5,YES
130,526,58.44444444444444,130,1,0.1111111111111111,1,525,58.333333333333336,130,9,1,5,YES
38,152,38.0,38,0,0.0,0,152,38.0,38,4,1,4,YES
37,456,32.57142857142857,43,12,0.8571428571428571,6,468,33.42857142857143,43,14,0,7,NO
51,612,43.714285714285715,51,0,0.0,0,612,43.714285714285715,51,14,0,7,NO
36,448,32.0,44,16,1.1428571428571428,8,464,33.142857142857146,44,14,0,7,NO
51,612,43.714285714285715,51,0,0.0,0,612,43.714285714285715,51,14,0,7,NO
76,332,41.5,76,0,0.0,0,332,41.5,76,8,1,5,YES
44,176,44.0,44,0,0.0,0,176,44.0,44,4,1,4,YES
42,168,42.0,42,0,0.0,0,168,42.0,42,4,1,4,YES
46,184,46.0,46,0,0.0,0,184,46.0,46,4,1,4,YES
42,168,42.0,42,0,0.0,0,168,42.0,42,4,1,4,YES
113,452,113.0,113,0,0.0,0,452,113.0,113,4,1,4,YES
53,212,53.0,53,0,0.0,0,212,53.0,53,4,1,4,YES
56,224,56.0,56,0,0.0,0,224,56.0,56,4,1,4,YES
61,244,61.0,61,0,0.0,0,244,61.0,61,4,1,4,YES
49,196,49.0,49,0,0.0,0,196,49.0,49,4,1,4,YES
38,342,38.0,38,0,0.0,0,342,38.0,38,9,1,5,YES
53,212,53.0,53,0,0.0,0,212,53.0,53,4,1,4,YES
43,356,39.55555555555556,52,12,1.3333333333333333,12,362,40.22222222222222,52,9,0,6,NO
29,116,29.0,29,0,0.0,0,116,29.0,29,4,1,4,YES
48,192,48.0,48,0,0.0,0,192,48.0,48,4,1,4,YES
96,384,96.0,96,0,0.0,0,384,96.0,96,4,1,4,YES
95,380,95.0,95,0,0.0,0,380,95.0,95,4,1,4,YES
51,204,51.0,51,0,0.0,0,204,51.0,51,4,1,4,YES
29,116,29.0,29,0,0.0,0,116,29.0,29,4,1,4,YES
159,636,159.0,159,0,0.0,0,636,159.0,159,4,1,4,YES
41,340,37.77777777777778,50,12,1.3333333333333333,12,346,38.44444444444444,50,9,0,6,NO
53,212,53.0,53,0,0.0,0,212,53.0,53,4,1,4,YES
56,224,56.0,56,0,0.0,0,224,56.0,56,4,1,4,YES
27,108,27.0,27,0,0.0,0,108,27.0,27,4,1,4,YES
95,380,95.0,95,0,0.0,0,380,95.0,95,4,1,4,YES
40,160,40.0,40,0,0.0,0,160,40.0,40,4,1,4,YES
42,168,42.0,42,0,0.0,0,168,42.0,42,4,1,4,YES
59,236,59.0,59,0,0.0,0,236,59.0,59,4,1,4,YES
55,239,26.555555555555557,55,15,1.6666666666666667,3,224,24.88888888888889,55,9,2,6,YES
38,152,38.0,38,0,0.0,0,152,38.0,38,4,1,4,YES
66,281,25.545454545454547,67,19,1.7272727272727273,3,274,24.90909090909091,67,11,2,6,YES
31,124,31.0,31,0,0.0,0,124,31.0,31,4,1,4,YES
50,200,50.0,50,0,0.0,0,200,50.0,50,4,1,4,YES
29,116,29.0,29,0,0.0,0,116,29.0,29,4,1,4,YES
33,132,33.0,33,0,0.0,0,132,33.0,33,4,1,4,YES
39,156,39.0,39,0,0.0,0,156,39.0,39,4,1,4,YES
217,868,217.0,217,0,0.0,0,868,217.0,217,4,1,4,YES
40,160,40.0,40,0,0.0,0,160,40.0,40,4,1,4,YES
27,108,27.0,27,0,0.0,0,108,27.0,27,4,1,4,YES
84,336,84.0,84,0,0.0,0,336,84.0,84,4,1,4,YES
62,248,62.0,62,0,0.0,0,248,62.0,62,4,1,4,YES
80,320,80.0,80,0,0.0,0,320,80.0,80,4,1,4,YES
59,236,59.0,59,0,0.0,0,236,59.0,59,4,1,4,YES
87,697,77.44444444444444,87,1,0.1111111111111111,1,696,77.33333333333333,87,9,0,6,NO
93,372,93.0,93,0,0.0,0,372,93.0,93,4,1,4,YES
107,428,107.0,107,0,0.0,0,428,107.0,107,4,1,4,YES
73,292,73.0,73,0,0.0,0,292,73.0,73,4,1,4,YES
107,428,107.0,107,0,0.0,0,428,107.0,107,4,1,4,YES
76,304,76.0,76,0,0.0,0,304,76.0,76,4,1,4,YES
92,368,92.0,92,0,0.0,0,368,92.0,92,4,1,4,YES
24,96,24.0,24,0,0.0,0,96,24.0,24,4,1,4,YES
33,132,33.0,33,0,0.0,0,132,33.0,33,4,1,4,YES
31,124,31.0,31,0,0.0,0,124,31.0,31,4,1,4,YES
63,252,63.0,63,0,0.0,0,252,63.0,63,4,1,4,YES
77,308,77.0,77,0,0.0,0,308,77.0,77,4,1,4,YES
25,100,25.0,25,0,0.0,0,100,25.0,25,4,1,4,YES
26,104,26.0,26,0,0.0,0,104,26.0,26,4,1,4,YES
125,500,125.0,125,0,0.0,0,500,125.0,125,4,1,4,YES
201,804,201.0,201,0,0.0,0,804,201.0,201,4,1,4,YES
171,684,171.0,171,0,0.0,0,684,171.0,171,4,1,4,YES
204,816,204.0,204,0,0.0,0,816,204.0,204,4,1,4,YES
49,196,49.0,49,0,0.0,0,196,49.0,49,4,1,4,YES
38,152,38.0,38,0,0.0,0,152,38.0,38,4,1,4,YES
182,728,182.0,182,0,0.0,0,728,182.0,182,4,1,4,YES
94,376,94.0,94,0,0.0,0,376,94.0,94,4,1,4,YES
138,552,138.0,138,0,0.0,0,552,138.0,138,4,1,4,YES
25,100,25.0,25,0,0.0,0,100,25.0,25,4,1,4,YES
25,100,25.0,25,0,0.0,0,100,25.0,25,4,1,4,YES
36,144,36.0,36,0,0.0,0,144,36.0,36,4,1,4,YES
26,104,26.0,26,0,0.0,0,104,26.0,26,4,1,4,YES
44,176,44.0,44,0,0.0,0,176,44.0,44,4,1,4,YES
52,208,52.0,52,0,0.0,0,208,52.0,52,4,1,4,YES
50,200,50.0,50,0,0.0,0,200,50.0,50,4,1,4,YES
75,300,75.0,75,0,0.0,0,300,75.0,75,4,1,4,YES
28,112,28.0,28,0,0.0,0,112,28.0,28,4,1,4,YES
31,124,31.0,31,0,0.0,0,124,31.0,31,4,1,4,YES
41,164,41.0,41,0,0.0,0,164,41.0,41,4,1,4,YES
26,104,26.0,26,0,0.0,0,104,26.0,26,4,1,4,YES
39,156,39.0,39,0,0.0,0,156,39.0,39,4,1,4,YES
26,104,26.0,26,0,0.0,0,104,26.0,26,4,1,4,YES
30,120,30.0,30,0,0.0,0,120,30.0,30,4,1,4,YES
25,100,25.0,25,0,0.0,0,100,25.0,25,4,1,4,YES
33,132,33.0,33,0,0.0,0,132,33.0,33,4,1,4,YES
44,176,44.0,44,0,0.0,0,176,44.0,44,4,1,4,YES
23,92,23.0,23,0,0.0,0,92,23.0,23,4,1,4,YES
80,320,80.0,80,0,0.0,0,320,80.0,80,4,1,4,YES
78,312,78.0,78,0,0.0,0,312,78.0,78,4,1,4,YES
26,104,26.0,26,0,0.0,0,104,26.0,26,4,1,4,YES
84,336,84.0,84,0,0.0,0,336,84.0,84,4,1,4,YES
91,364,91.0,91,0,0.0,0,364,91.0,91,4,1,4,YES
26,104,26.0,26,0,0.0,0,104,26.0,26,4,1,4,YES
85,340,85.0,85,0,0.0,0,340,85.0,85,4,1,4,YES
67,268,67.0,67,0,0.0,0,268,67.0,67,4,1,4,YES
124,496,124.0,124,0,0.0,0,496,124.0,124,4,1,4,YES
26,104,26.0,26,0,0.0,0,104,26.0,26,4,1,4,YES
25,100,25.0,25,0,0.0,0,100,25.0,25,4,1,4,YES
76,304,76.0,76,0,0.0,0,304,76.0,76,4,1,4,YES
109,436,109.0,109,0,0.0,0,436,109.0,109,4,1,4,YES
24,96,24.0,24,0,0.0,0,96,24.0,24,4,1,4,YES
27,108,27.0,27,0,0.0,0,108,27.0,27,4,1,4,YES
47,188,47.0,47,0,0.0,0,188,47.0,47,4,1,4,YES
185,740,185.0,185,0,0.0,0,740,185.0,185,4,1,4,YES
96,384,96.0,96,0,0.0,0,384,96.0,96,4,1,4,YES
97,388,97.0,97,0,0.0,0,388,97.0,97,4,1,4,YES
23,92,23.0,23,0,0.0,0,92,23.0,23,4,1,4,YES
154,616,154.0,154,0,0.0,0,616,154.0,154,4,1,4,YES
47,188,47.0,47,0,0.0,0,188,47.0,47,4,1,4,YES
176,704,176.0,176,0,0.0,0,704,176.0,176,4,1,4,YES
36,144,36.0,36,0,0.0,0,144,36.0,36,4,1,4,YES
32,128,32.0,32,0,0.0,0,128,32.0,32,4,1,4,YES
30,120,30.0,30,0,0.0,0,120,30.0,30,4,1,4,YES
37,148,37.0,37,0,0.0,0,148,37.0,37,4,1,4,YES
33,132,33.0,33,0,0.0,0,132,33.0,33,4,1,4,YES
32,128,32.0,32,0,0.0,0,128,32.0,32,4,1,4,YES
289,1156,289.0,289,0,0.0,0,1156,289.0,289,4,1,4,YES
66,264,66.0,66,0,0.0,0,264,66.0,66,4,1,4,YES
439,1772,147.66666666666666,435,0,0.0,0,1772,147.66666666666666,435,12,2,6,YES
734,2936,734.0,734,0,0.0,0,2936,734.0,734,4,1,4,YES
147,588,147.0,147,0,0.0,0,588,147.0,147,4,1,4,YES
47,188,47.0,47,0,0.0,0,188,47.0,47,4,1,4,YES
171,684,171.0,171,0,0.0,0,684,171.0,171,4,1,4,YES
92,368,92.0,92,0,0.0,0,368,92.0,92,4,1,4,YES
60,338,26.0,44,18,1.3846153846153846,2,320,24.615384615384617,44,13,1,11,YES
34,136,34.0,34,0,0.0,0,136,34.0,34,4,1,4,YES
361,1444,361.0,361,0,0.0,0,1444,361.0,361,4,1,4,YES
60,240,60.0,60,0,0.0,0,240,60.0,60,4,1,4,YES
28,112,28.0,28,0,0.0,0,112,28.0,28,4,1,4,YES
50,200,50.0,50,0,0.0,0,200,50.0,50,4,1,4,YES
35,140,35.0,35,0,0.0,0,140,35.0,35,4,1,4,YES
117,468,117.0,117,0,0.0,0,468,117.0,117,4,1,4,YES
238,1450,120.83333333333333,241,22,1.8333333333333333,7,1440,120.0,241,12,0,3,NO
59,354,59.0,59,0,0.0,0,354,59.0,59,6,0,3,NO
72,454,45.4,78,22,2.2,6,456,45.6,78,10,0,3,NO
200,1200,200.0,200,0,0.0,0,1200,200.0,200,6,0,3,NO
46,290,24.166666666666668,46,18,1.5,4,284,23.666666666666668,46,12,0,4,NO
217,1328,132.8,223,26,2.6,7,1326,132.6,223,10,0,3,NO
42,252,42.0,42,0,0.0,0,252,42.0,42,6,0,3,NO
265,1616,115.42857142857143,265,30,2.142857142857143,5,1598,114.14285714285714,265,14,0,4,NO
52,318,39.75,52,6,0.75,3,312,39.0,52,8,0,3,NO
40,240,40.0,40,0,0.0,0,240,40.0,40,6,0,3,NO
81,498,41.5,81,12,1.0,4,486,40.5,81,12,0,4,NO
78,471,47.1,78,1,0.1,1,472,47.2,78,10,0,4,NO
35,233,23.3,35,13,1.3,7,230,23.0,35,10,0,4,NO
48,288,48.0,48,0,0.0,0,288,48.0,48,6,0,3,NO
43,262,32.75,43,4,0.5,2,258,32.25,43,8,0,3,NO
44,268,33.5,44,4,0.5,2,264,33.0,44,8,0,3,NO
43,262,32.75,43,4,0.5,2,258,32.25,43,8,0,3,NO
42,256,32.0,42,4,0.5,2,252,31.5,42,8,0,3,NO
57,344,43.0,57,2,0.25,1,342,42.75,57,8,0,3,NO
32,192,32.0,32,0,0.0,0,192,32.0,32,6,0,3,NO
59,354,59.0,59,0,0.0,0,354,59.0,59,6,0,3,NO
60,360,60.0,60,0,0.0,0,360,60.0,60,6,0,3,NO
60,360,60.0,60,0,0.0,0,360,60.0,60,6,0,3,NO
60,360,60.0,60,0,0.0,0,360,60.0,60,6,0,3,NO
45,270,45.0,45,0,0.0,0,270,45.0,45,6,0,3,NO
48,192,48.0,48,0,0.0,0,192,48.0,48,4,1,4,YES
117,477,95.4,117,0,0.0,0,477,95.4,117,5,1,5,YES
214,856,214.0,214,0,0.0,0,856,214.0,214,4,1,4,YES
94,376,94.0,94,0,0.0,0,376,94.0,94,4,1,4,YES
68,272,68.0,68,0,0.0,0,272,68.0,68,4,1,4,YES
356,1424,356.0,356,0,0.0,0,1424,356.0,356,4,1,4,YES
37,148,37.0,37,0,0.0,0,148,37.0,37,4,1,4,YES
37,148,37.0,37,0,0.0,0,148,37.0,37,4,1,4,YES
54,216,54.0,54,0,0.0,0,216,54.0,54,4,1,4,YES
53,212,53.0,53,0,0.0,0,212,53.0,53,4,1,4,YES
44,176,44.0,44,0,0.0,0,176,44.0,44,4,1,4,YES
35,140,35.0,35,0,0.0,0,140,35.0,35,4,1,4,YES
24,186,14.307692307692308,24,9,0.6923076923076923,1,177,13.615384615384615,24,13,1,9,YES
66,266,33.25,66,0,0.0,0,266,33.25,66,8,2,6,YES
27,108,27.0,27,0,0.0,0,108,27.0,27,4,1,4,YES
544,2278,142.375,544,62,3.875,6,2216,138.5,544,16,2,9,YES
67,268,67.0,67,0,0.0,0,268,67.0,67,4,1,4,YES
177,708,177.0,177,0,0.0,0,708,177.0,177,4,1,4,YES
59,236,59.0,59,0,0.0,0,236,59.0,59,4,1,4,YES
68,272,68.0,68,0,0.0,0,272,68.0,68,4,1,4,YES
156,624,156.0,156,0,0.0,0,624,156.0,156,4,1,4,YES
189,1968,123.0,189,156,9.75,13,1812,113.25,189,16,1,10,YES
252,1008,252.0,252,0,0.0,0,1008,252.0,252,4,1,4,YES
43,172,43.0,43,0,0.0,0,172,43.0,43,4,1,4,YES
43,172,43.0,43,0,0.0,0,172,43.0,43,4,1,4,YES
38,152,38.0,38,0,0.0,0,152,38.0,38,4,1,4,YES
118,643,30.61904761904762,118,18,0.8571428571428571,2,625,29.761904761904763,118,21,1,9,YES
41,164,41.0,41,0,0.0,0,164,41.0,41,4,1,4,YES
62,248,62.0,62,0,0.0,0,248,62.0,62,4,1,4,YES
128,512,128.0,128,0,0.0,0,512,128.0,128,4,1,4,YES
47,188,47.0,47,0,0.0,0,188,47.0,47,4,1,4,YES
121,484,121.0,121,0,0.0,0,484,121.0,121,4,1,4,YES
210,840,210.0,210,0,0.0,0,840,210.0,210,4,1,4,YES
505,2020,505.0,505,0,0.0,0,2020,505.0,505,4,1,4,YES
76,304,76.0,76,0,0.0,0,304,76.0,76,4,1,4,YES
44,396,39.6,44,0,0.0,0,396,39.6,44,10,0,4,NO
34,136,34.0,34,0,0.0,0,136,34.0,34,4,1,4,YES
66,264,66.0,66,0,0.0,0,264,66.0,66,4,1,4,YES
119,706,29.416666666666668,119,24,1.0,5,688,28.666666666666668,119,24,1,10,YES
125,500,125.0,125,0,0.0,0,500,125.0,125,4,1,4,YES
132,528,132.0,132,0,0.0,0,528,132.0,132,4,1,4,YES
64,316,31.6,65,78,7.8,37,276,27.6,65,10,2,7,YES
1404,15648,156.48,1378,1407,14.07,252,15009,150.09,1378,100,5,20,YES
131,524,131.0,131,0,0.0,0,524,131.0,131,4,1,4,YES
188,856,95.11111111111111,187,105,11.666666666666666,32,795,88.33333333333333,187,9,1,5,YES
51,204,51.0,51,0,0.0,0,204,51.0,51,4,1,4,YES
25,115,7.666666666666667,26,14,0.9333333333333333,2,107,7.133333333333334,26,15,1,11,YES
79,563,35.1875,59,107,6.6875,9,458,28.625,59,16,1,11,YES
375,1500,375.0,375,0,0.0,0,1500,375.0,375,4,1,4,YES
53,212,53.0,53,0,0.0,0,212,53.0,53,4,1,4,YES
84,336,84.0,84,0,0.0,0,336,84.0,84,4,1,4,YES
700,2810,200.71428571428572,700,10,0.7142857142857143,1,2800,200.0,700,14,2,8,YES
217,872,218.0,218,0,0.0,0,872,218.0,218,4,1,4,YES
175,700,175.0,175,0,0.0,0,700,175.0,175,4,1,4,YES
75,300,75.0,75,0,0.0,0,300,75.0,75,4,1,4,YES
76,316,39.5,76,4,0.5,1,312,39.0,76,8,1,6,YES
49,196,49.0,49,0,0.0,0,196,49.0,49,4,1,4,YES
51,204,51.0,51,0,0.0,0,204,51.0,51,4,1,4,YES
74,296,74.0,74,0,0.0,0,296,74.0,74,4,1,4,YES
71,284,71.0,71,0,0.0,0,284,71.0,71,4,1,4,YES
132,548,68.5,132,16,2.0,4,532,66.5,132,8,1,6,YES
31,130,13.0,31,6,0.6,1,124,12.4,31,10,1,7,YES
49,203,25.375,49,0,0.0,0,203,25.375,49,8,1,6,YES
26,104,26.0,26,0,0.0,0,104,26.0,26,4,1,4,YES
82,349,43.625,82,0,0.0,0,349,43.625,82,8,1,6,YES
38,152,38.0,38,0,0.0,0,152,38.0,38,4,1,4,YES
121,505,63.125,121,16,2.0,4,489,61.125,121,8,1,6,YES
65,260,65.0,65,0,0.0,0,260,65.0,65,4,1,4,YES
91,376,47.0,91,4,0.5,1,372,46.5,91,8,1,6,YES
77,308,77.0,77,0,0.0,0,308,77.0,77,4,1,4,YES
125,520,65.0,125,4,0.5,1,516,64.5,125,8,1,6,YES
48,192,48.0,48,0,0.0,0,192,48.0,48,4,1,4,YES
42,168,42.0,42,0,0.0,0,168,42.0,42,4,1,4,YES
289,1156,289.0,289,0,0.0,0,1156,289.0,289,4,1,4,YES
744,3096,309.6,744,0,0.0,0,3096,309.6,744,10,1,8,YES
455,2426,161.73333333333332,461,616,41.06666666666667,88,1880,125.33333333333333,461,15,2,7,YES
137,548,137.0,137,0,0.0,0,548,137.0,137,4,1,4,YES
179,716,179.0,179,0,0.0,0,716,179.0,179,4,1,4,YES
66,264,66.0,66,0,0.0,0,264,66.0,66,4,1,4,YES
85,340,85.0,85,0,0.0,0,340,85.0,85,4,1,4,YES
74,296,74.0,74,0,0.0,0,296,74.0,74,4,1,4,YES
679,2724,247.63636363636363,667,7,0.6363636363636364,1,2717,247.0,667,11,2,6,YES
86,344,86.0,86,0,0.0,0,344,86.0,86,4,1,4,YES
83,332,83.0,83,0,0.0,0,332,83.0,83,4,1,4,YES
94,376,94.0,94,0,0.0,0,376,94.0,94,4,1,4,YES
53,212,53.0,53,0,0.0,0,212,53.0,53,4,1,4,YES
1433,9158,269.3529411764706,1388,97,2.8529411764705883,79,9231,271.5,1388,34,1,11,YES
111,444,111.0,111,0,0.0,0,444,111.0,111,4,1,4,YES
288,1358,135.8,288,41,4.1,37,1377,137.7,288,10,1,7,YES
82,328,82.0,82,0,0.0,0,328,82.0,82,4,1,4,YES
71,284,71.0,71,0,0.0,0,284,71.0,71,4,1,4,YES
60,240,60.0,60,0,0.0,0,240,60.0,60,4,1,4,YES
262,1048,262.0,262,0,0.0,0,1048,262.0,262,4,1,4,YES
72,288,72.0,72,0,0.0,0,288,72.0,72,4,1,4,YES
178,717,55.15384615384615,177,0,0.0,0,717,55.15384615384615,177,13,2,6,YES
131,655,131.0,131,0,0.0,0,655,131.0,131,5,0,4,NO
118,927,61.8,65,0,0.0,0,927,61.8,65,15,1,12,YES
142,568,142.0,142,0,0.0,0,568,142.0,142,4,1,4,YES
76,380,76.0,76,0,0.0,0,380,76.0,76,5,1,4,YES
105,660,82.5,110,30,3.75,15,650,81.25,110,8,0,3,NO
110,440,110.0,110,0,0.0,0,440,110.0,110,4,1,4,YES
187,748,187.0,187,0,0.0,0,748,187.0,187,4,1,4,YES
40,160,40.0,40,0,0.0,0,160,40.0,40,4,1,4,YES
85,340,85.0,85,0,0.0,0,340,85.0,85,4,1,4,YES
100,404,101.0,101,0,0.0,0,404,101.0,101,4,1,4,YES
94,376,94.0,94,0,0.0,0,376,94.0,94,4,1,4,YES
50,573,44.07692307692308,68,23,1.7692307692307692,19,588,45.23076923076923,68,13,0,9,NO
118,473,59.125,118,0,0.0,0,473,59.125,118,8,1,6,YES
513,2115,264.375,513,44,5.5,11,2071,258.875,513,8,1,6,YES
391,1957,244.625,391,2,0.25,1,1955,244.375,391,8,2,5,YES
41,205,41.0,41,0,0.0,0,205,41.0,41,5,1,4,YES
69,345,69.0,69,0,0.0,0,345,69.0,69,5,1,4,YES
54,239,23.9,41,9,0.9,3,230,23.0,41,10,3,6,YES
37,186,31.0,37,1,0.16666666666666666,1,185,30.833333333333332,37,6,1,4,YES
42,204,29.142857142857142,40,0,0.0,0,204,29.142857142857142,40,7,2,5,YES
105,503,71.85714285714286,97,2,0.2857142857142857,1,501,71.57142857142857,97,7,2,5,YES
71,355,44.375,71,0,0.0,0,355,44.375,71,8,1,4,YES
46,231,33.0,46,1,0.14285714285714285,1,230,32.857142857142854,46,7,1,4,YES
78,0,0.0,0,0,0.0,0,0,0.0,0,0,0,0,NO
302,0,0.0,0,0,0.0,0,0,0.0,0,0,0,0,NO
87,0,0.0,0,0,0.0,0,0,0.0,0,0,0,0,NO
198,0,0.0,0,0,0.0,0,0,0.0,0,0,0,0,NO
175,0,0.0,0,0,0.0,0,0,0.0,0,0,0,0,NO
65,0,0.0,0,0,0.0,0,0,0.0,0,0,0,0,NO
105,0,0.0,0,0,0.0,0,0,0.0,0,0,0,0,NO
58,0,0.0,0,0,0.0,0,0,0.0,0,0,0,0,NO
196,0,0.0,0,0,0.0,0,0,0.0,0,0,0,0,NO
106,0,0.0,0,0,0.0,0,0,0.0,0,0,0,0,NO
130,0,0.0,0,0,0.0,0,0,0.0,0,0,0,0,NO
64,0,0.0,0,0,0.0,0,0,0.0,0,0,0,0,NO
132,0,0.0,0,0,0.0,0,0,0.0,0,0,0,0,NO
62,0,0.0,0,0,0.0,0,0,0.0,0,0,0,0,NO
108,0,0.0,0,0,0.0,0,0,0.0,0,0,0,0,NO
432,0,0.0,0,0,0.0,0,0,0.0,0,0,0,0,NO
174,0,0.0,0,0,0.0,0,0,0.0,0,0,0,0,NO
246,0,0.0,0,0,0.0,0,0,0.0,0,0,0,0,NO
106,0,0.0,0,0,0.0,0,0,0.0,0,0,0,0,NO
121,0,0.0,0,0,0.0,0,0,0.0,0,0,0,0,NO
110,0,0.0,0,0,0.0,0,0,0.0,0,0,0,0,NO
58,0,0.0,0,0,0.0,0,0,0.0,0,0,0,0,NO
37,0,0.0,0,0,0.0,0,0,0.0,0,0,0,0,NO
77,0,0.0,0,0,0.0,0,0,0.0,0,0,0,0,NO
142,0,0.0,0,0,0.0,0,0,0.0,0,0,0,0,NO
114,0,0.0,0,0,0.0,0,0,0.0,0,0,0,0,NO
80,0,0.0,0,0,0.0,0,0,0.0,0,0,0,0,NO
59,0,0.0,0,0,0.0,0,0,0.0,0,0,0,0,NO
69,0,0.0,0,0,0.0,0,0,0.0,0,0,0,0,NO
95,0,0.0,0,0,0.0,0,0,0.0,0,0,0,0,NO
64,0,0.0,0,0,0.0,0,0,0.0,0,0,0,0,NO
164,0,0.0,0,0,0.0,0,0,0.0,0,0,0,0,NO
70,0,0.0,0,0,0.0,0,0,0.0,0,0,0,0,NO
32,0,0.0,0,0,0.0,0,0,0.0,0,0,0,0,NO
148,0,0.0,0,0,0.0,0,0,0.0,0,0,0,0,NO
156,0,0.0,0,0,0.0,0,0,0.0,0,0,0,0,NO
119,0,0.0,0,0,0.0,0,0,0.0,0,0,0,0,NO
116,0,0.0,0,0,0.0,0,0,0.0,0,0,0,0,NO
93,0,0.0,0,0,0.0,0,0,0.0,0,0,0,0,NO
229,0,0.0,0,0,0.0,0,0,0.0,0,0,0,0,NO
123,0,0.0,0,0,0.0,0,0,0.0,0,0,0,0,NO
201,0,0.0,0,0,0.0,0,0,0.0,0,0,0,0,NO
180,0,0.0,0,0,0.0,0,0,0.0,0,0,0,0,NO
156,0,0.0,0,0,0.0,0,0,0.0,0,0,0,0,NO
98,0,0.0,0,0,0.0,0,0,0.0,0,0,0,0,NO
85,0,0.0,0,0,0.0,0,0,0.0,0,0,0,0,NO
48,0,0.0,0,0,0.0,0,0,0.0,0,0,0,0,NO
145,0,0.0,0,0,0.0,0,0,0.0,0,0,0,0,NO
145,0,0.0,0,0,0.0,0,0,0.0,0,0,0,0,NO
113,0,0.0,0,0,0.0,0,0,0.0,0,0,0,0,NO
146,0,0.0,0,0,0.0,0,0,0.0,0,0,0,0,NO
113,0,0.0,0,0,0.0,0,0,0.0,0,0,0,0,NO
147,0,0.0,0,0,0.0,0,0,0.0,0,0,0,0,NO
125,0,0.0,0,0,0.0,0,0,0.0,0,0,0,0,NO
252,0,0.0,0,0,0.0,0,0,0.0,0,0,0,0,NO
368,0,0.0,0,0,0.0,0,0,0.0,0,0,0,0,NO
106,0,0.0,0,0,0.0,0,0,0.0,0,0,0,0,NO
181,0,0.0,0,0,0.0,0,0,0.0,0,0,0,0,NO
260,0,0.0,0,0,0.0,0,0,0.0,0,0,0,0,NO
610,12,12.0,12,17,17.0,17,5,5.0,5,1,0,1,NO
39,0,0.0,0,0,0.0,0,0,0.0,0,0,0,0,NO
39,0,0.0,0,0,0.0,0,0,0.0,0,0,0,0,NO
39,0,0.0,0,0,0.0,0,0,0.0,0,0,0,0,NO
24,0,0.0,0,0,0.0,0,0,0.0,0,0,0,0,NO
62,0,0.0,0,0,0.0,0,0,0.0,0,0,0,0,NO
77,0,0.0,0,0,0.0,0,0,0.0,0,0,0,0,NO
77,0,0.0,0,0,0.0,0,0,0.0,0,0,0,0,NO
54,0,0.0,0,0,0.0,0,0,0.0,0,0,0,0,NO
92,0,0.0,0,0,0.0,0,0,0.0,0,0,0,0,NO
58,0,0.0,0,0,0.0,0,0,0.0,0,0,0,0,NO
24,0,0.0,0,0,0.0,0,0,0.0,0,0,0,0,NO
64,0,0.0,0,0,0.0,0,0,0.0,0,0,0,0,NO
216,0,0.0,0,0,0.0,0,0,0.0,0,0,0,0,NO
36,0,0.0,0,0,0.0,0,0,0.0,0,0,0,0,NO
36,0,0.0,0,0,0.0,0,0,0.0,0,0,0,0,NO
208,0,0.0,0,0,0.0,0,0,0.0,0,0,0,0,NO
39,0,0.0,0,0,0.0,0,0,0.0,0,0,0,0,NO
47,0,0.0,0,0,0.0,0,0,0.0,0,0,0,0,NO
74,0,0.0,0,0,0.0,0,0,0.0,0,0,0,0,NO
71,0,0.0,0,0,0.0,0,0,0.0,0,0,0,0,NO
56,0,0.0,0,0,0.0,0,0,0.0,0,0,0,0,NO
44,0,0.0,0,0,0.0,0,0,0.0,0,0,0,0,NO
55,0,0.0,0,0,0.0,0,0,0.0,0,0,0,0,NO
53,0,0.0,0,0,0.0,0,0,0.0,0,0,0,0,NO
221,179,35.8,39,22,4.4,5,157,31.4,34,5,0,4,NO
44,0,0.0,0,0,0.0,0,0,0.0,0,0,0,0,NO
171,0,0.0,0,0,0.0,0,0,0.0,0,0,0,0,NO
511,89,17.8,22,17,3.4,4,72,14.4,18,5,0,4,NO
122,0,0.0,0,0,0.0,0,0,0.0,0,0,0,0,NO
132,2,1.0,1,1,0.5,1,1,0.5,1,2,0,1,NO
115,224,112.0,180,10,5.0,9,214,107.0,179,2,0,1,NO
201,0,0.0,0,0,0.0,0,0,0.0,0,0,0,0,NO
116,0,0.0,0,0,0.0,0,0,0.0,0,0,0,0,NO
225,0,0.0,0,0,0.0,0,0,0.0,0,0,0,0,NO
42,0,0.0,0,0,0.0,0,0,0.0,0,0,0,0,NO
44,0,0.0,0,0,0.0,0,0,0.0,0,0,0,0,NO
94,376,94.0,94,0,0.0,0,376,94.0,94,4,0,3,NO
136,0,0.0,0,0,0.0,0,0,0.0,0,0,0,0,NO
27,0,0.0,0,0,0.0,0,0,0.0,0,0,0,0,NO
47,0,0.0,0,0,0.0,0,0,0.0,0,0,0,0,NO
60,0,0.0,0,0,0.0,0,0,0.0,0,0,0,0,NO
58,0,0.0,0,0,0.0,0,0,0.0,0,0,0,0,NO
56,0,0.0,0,0,0.0,0,0,0.0,0,0,0,0,NO
205,0,0.0,0,0,0.0,0,0,0.0,0,0,0,0,NO
44,0,0.0,0,0,0.0,0,0,0.0,0,0,0,0,NO
49,0,0.0,0,0,0.0,0,0,0.0,0,0,0,0,NO
30,0,0.0,0,0,0.0,0,0,0.0,0,0,0,0,NO
39,0,0.0,0,0,0.0,0,0,0.0,0,0,0,0,NO
80,0,0.0,0,0,0.0,0,0,0.0,0,0,0,0,NO
29,0,0.0,0,0,0.0,0,0,0.0,0,0,0,0,NO
49,0,0.0,0,0,0.0,0,0,0.0,0,0,0,0,NO
78,0,0.0,0,0,0.0,0,0,0.0,0,0,0,0,NO
45,0,0.0,0,0,0.0,0,0,0.0,0,0,0,0,NO
31,0,0.0,0,0,0.0,0,0,0.0,0,0,0,0,NO
30,0,0.0,0,0,0.0,0,0,0.0,0,0,0,0,NO
36,0,0.0,0,0,0.0,0,0,0.0,0,0,0,0,NO
43,0,0.0,0,0,0.0,0,0,0.0,0,0,0,0,NO
60,0,0.0,0,0,0.0,0,0,0.0,0,0,0,0,NO
85,0,0.0,0,0,0.0,0,0,0.0,0,0,0,0,NO
92,0,0.0,0,0,0.0,0,0,0.0,0,0,0,0,NO
156,0,0.0,0,0,0.0,0,0,0.0,0,0,0,0,NO
98,0,0.0,0,0,0.0,0,0,0.0,0,0,0,0,NO
131,0,0.0,0,0,0.0,0,0,0.0,0,0,0,0,NO
194,0,0.0,0,0,0.0,0,0,0.0,0,0,0,0,NO
201,0,0.0,0,0,0.0,0,0,0.0,0,0,0,0,NO
69,0,0.0,0,0,0.0,0,0,0.0,0,0,0,0,NO
68,0,0.0,0,0,0.0,0,0,0.0,0,0,0,0,NO
52,0,0.0,0,0,0.0,0,0,0.0,0,0,0,0,NO
50,0,0.0,0,0,0.0,0,0,0.0,0,0,0,0,NO
202,0,0.0,0,0,0.0,0,0,0.0,0,0,0,0,NO
73,0,0.0,0,0,0.0,0,0,0.0,0,0,0,0,NO
42,0,0.0,0,0,0.0,0,0,0.0,0,0,0,0,NO
35,0,0.0,0,0,0.0,0,0,0.0,0,0,0,0,NO
125,0,0.0,0,0,0.0,0,0,0.0,0,0,0,0,NO
65,0,0.0,0,0,0.0,0,0,0.0,0,0,0,0,NO
48,0,0.0,0,0,0.0,0,0,0.0,0,0,0,0,NO
89,0,0.0,0,0,0.0,0,0,0.0,0,0,0,0,NO
153,0,0.0,0,0,0.0,0,0,0.0,0,0,0,0,NO
40,0,0.0,0,0,0.0,0,0,0.0,0,0,0,0,NO
64,0,0.0,0,0,0.0,0,0,0.0,0,0,0,0,NO
99,0,0.0,0,0,0.0,0,0,0.0,0,0,0,0,NO
73,0,0.0,0,0,0.0,0,0,0.0,0,0,0,0,NO
72,0,0.0,0,0,0.0,0,0,0.0,0,0,0,0,NO
51,0,0.0,0,0,0.0,0,0,0.0,0,0,0,0,NO
36,0,0.0,0,0,0.0,0,0,0.0,0,0,0,0,NO
31,0,0.0,0,0,0.0,0,0,0.0,0,0,0,0,NO
61,0,0.0,0,0,0.0,0,0,0.0,0,0,0,0,NO
74,0,0.0,0,0,0.0,0,0,0.0,0,0,0,0,NO
101,0,0.0,0,0,0.0,0,0,0.0,0,0,0,0,NO
86,0,0.0,0,0,0.0,0,0,0.0,0,0,0,0,NO
106,0,0.0,0,0,0.0,0,0,0.0,0,0,0,0,NO
91,0,0.0,0,0,0.0,0,0,0.0,0,0,0,0,NO
58,0,0.0,0,0,0.0,0,0,0.0,0,0,0,0,NO
106,0,0.0,0,0,0.0,0,0,0.0,0,0,0,0,NO
143,0,0.0,0,0,0.0,0,0,0.0,0,0,0,0,NO
52,0,0.0,0,0,0.0,0,0,0.0,0,0,0,0,NO
88,0,0.0,0,0,0.0,0,0,0.0,0,0,0,0,NO
66,0,0.0,0,0,0.0,0,0,0.0,0,0,0,0,NO
44,0,0.0,0,0,0.0,0,0,0.0,0,0,0,0,NO
158,0,0.0,0,0,0.0,0,0,0.0,0,0,0,0,NO
51,0,0.0,0,0,0.0,0,0,0.0,0,0,0,0,NO
36,0,0.0,0,0,0.0,0,0,0.0,0,0,0,0,NO
63,0,0.0,0,0,0.0,0,0,0.0,0,0,0,0,NO
36,0,0.0,0,0,0.0,0,0,0.0,0,0,0,0,NO
43,0,0.0,0,0,0.0,0,0,0.0,0,0,0,0,NO
81,0,0.0,0,0,0.0,0,0,0.0,0,0,0,0,NO
75,0,0.0,0,0,0.0,0,0,0.0,0,0,0,0,NO
81,0,0.0,0,0,0.0,0,0,0.0,0,0,0,0,NO
88,0,0.0,0,0,0.0,0,0,0.0,0,0,0,0,NO
42,0,0.0,0,0,0.0,0,0,0.0,0,0,0,0,NO
82,0,0.0,0,0,0.0,0,0,0.0,0,0,0,0,NO
55,0,0.0,0,0,0.0,0,0,0.0,0,0,0,0,NO
48,0,0.0,0,0,0.0,0,0,0.0,0,0,0,0,NO
72,0,0.0,0,0,0.0,0,0,0.0,0,0,0,0,NO
113,0,0.0,0,0,0.0,0,0,0.0,0,0,0,0,NO
55,0,0.0,0,0,0.0,0,0,0.0,0,0,0,0,NO
35,0,0.0,0,0,0.0,0,0,0.0,0,0,0,0,NO
47,0,0.0,0,0,0.0,0,0,0.0,0,0,0,0,NO
101,0,0.0,0,0,0.0,0,0,0.0,0,0,0,0,NO
109,0,0.0,0,0,0.0,0,0,0.0,0,0,0,0,NO
28,0,0.0,0,0,0.0,0,0,0.0,0,0,0,0,NO
54,0,0.0,0,0,0.0,0,0,0.0,0,0,0,0,NO
158,0,0.0,0,0,0.0,0,0,0.0,0,0,0,0,NO
52,0,0.0,0,0,0.0,0,0,0.0,0,0,0,0,NO
53,0,0.0,0,0,0.0,0,0,0.0,0,0,0,0,NO
81,0,0.0,0,0,0.0,0,0,0.0,0,0,0,0,NO
83,0,0.0,0,0,0.0,0,0,0.0,0,0,0,0,NO
63,0,0.0,0,0,0.0,0,0,0.0,0,0,0,0,NO
48,0,0.0,0,0,0.0,0,0,0.0,0,0,0,0,NO
55,0,0.0,0,0,0.0,0,0,0.0,0,0,0,0,NO
149,0,0.0,0,0,0.0,0,0,0.0,0,0,0,0,NO
263,0,0.0,0,0,0.0,0,0,0.0,0,0,0,0,NO
179,0,0.0,0,0,0.0,0,0,0.0,0,0,0,0,NO
37,0,0.0,0,0,0.0,0,0,0.0,0,0,0,0,NO
25,0,0.0,0,0,0.0,0,0,0.0,0,0,0,0,NO
30,0,0.0,0,0,0.0,0,0,0.0,0,0,0,0,NO
36,0,0.0,0,0,0.0,0,0,0.0,0,0,0,0,NO
30,0,0.0,0,0,0.0,0,0,0.0,0,0,0,0,NO
27,0,0.0,0,0,0.0,0,0,0.0,0,0,0,0,NO
37,0,0.0,0,0,0.0,0,0,0.0,0,0,0,0,NO
33,0,0.0,0,0,0.0,0,0,0.0,0,0,0,0,NO
31,0,0.0,0,0,0.0,0,0,0.0,0,0,0,0,NO
56,0,0.0,0,0,0.0,0,0,0.0,0,0,0,0,NO
101,0,0.0,0,0,0.0,0,0,0.0,0,0,0,0,NO
139,0,0.0,0,0,0.0,0,0,0.0,0,0,0,0,NO
85,0,0.0,0,0,0.0,0,0,0.0,0,0,0,0,NO
95,0,0.0,0,0,0.0,0,0,0.0,0,0,0,0,NO
60,0,0.0,0,0,0.0,0,0,0.0,0,0,0,0,NO
35,0,0.0,0,0,0.0,0,0,0.0,0,0,0,0,NO
26,0,0.0,0,0,0.0,0,0,0.0,0,0,0,0,NO
69,0,0.0,0,0,0.0,0,0,0.0,0,0,0,0,NO
64,0,0.0,0,0,0.0,0,0,0.0,0,0,0,0,NO
39,0,0.0,0,0,0.0,0,0,0.0,0,0,0,0,NO
41,0,0.0,0,0,0.0,0,0,0.0,0,0,0,0,NO
167,0,0.0,0,0,0.0,0,0,0.0,0,0,0,0,NO
66,0,0.0,0,0,0.0,0,0,0.0,0,0,0,0,NO
93,0,0.0,0,0,0.0,0,0,0.0,0,0,0,0,NO
77,0,0.0,0,0,0.0,0,0,0.0,0,0,0,0,NO
123,0,0.0,0,0,0.0,0,0,0.0,0,0,0,0,NO
90,0,0.0,0,0,0.0,0,0,0.0,0,0,0,0,NO
48,0,0.0,0,0,0.0,0,0,0.0,0,0,0,0,NO
85,0,0.0,0,0,0.0,0,0,0.0,0,0,0,0,NO
43,0,0.0,0,0,0.0,0,0,0.0,0,0,0,0,NO
90,0,0.0,0,0,0.0,0,0,0.0,0,0,0,0,NO
202,0,0.0,0,0,0.0,0,0,0.0,0,0,0,0,NO
135,0,0.0,0,0,0.0,0,0,0.0,0,0,0,0,NO
30,0,0.0,0,0,0.0,0,0,0.0,0,0,0,0,NO
29,0,0.0,0,0,0.0,0,0,0.0,0,0,0,0,NO
67,0,0.0,0,0,0.0,0,0,0.0,0,0,0,0,NO
242,0,0.0,0,0,0.0,0,0,0.0,0,0,0,0,NO
72,0,0.0,0,0,0.0,0,0,0.0,0,0,0,0,NO
50,0,0.0,0,0,0.0,0,0,0.0,0,0,0,0,NO
89,0,0.0,0,0,0.0,0,0,0.0,0,0,0,0,NO
40,0,0.0,0,0,0.0,0,0,0.0,0,0,0,0,NO
49,0,0.0,0,0,0.0,0,0,0.0,0,0,0,0,NO
249,0,0.0,0,0,0.0,0,0,0.0,0,0,0,0,NO
40,0,0.0,0,0,0.0,0,0,0.0,0,0,0,0,NO
171,0,0.0,0,0,0.0,0,0,0.0,0,0,0,0,NO
40,0,0.0,0,0,0.0,0,0,0.0,0,0,0,0,NO
32,0,0.0,0,0,0.0,0,0,0.0,0,0,0,0,NO
271,97,19.4,21,113,22.6,25,16,3.2,4,5,0,4,NO
55,10,2.0,2,10,2.0,2,0,0.0,0,5,0,4,NO
80,0,0.0,0,0,0.0,0,0,0.0,0,0,0,0,NO
28,0,0.0,0,0,0.0,0,0,0.0,0,0,0,0,NO
44,0,0.0,0,0,0.0,0,0,0.0,0,0,0,0,NO
83,0,0.0,0,0,0.0,0,0,0.0,0,0,0,0,NO
67,0,0.0,0,0,0.0,0,0,0.0,0,0,0,0,NO
36,0,0.0,0,0,0.0,0,0,0.0,0,0,0,0,NO
384,0,0.0,0,0,0.0,0,0,0.0,0,0,0,0,NO
196,0,0.0,0,0,0.0,0,0,0.0,0,0,0,0,NO
312,0,0.0,0,0,0.0,0,0,0.0,0,0,0,0,NO
120,0,0.0,0,0,0.0,0,0,0.0,0,0,0,0,NO
315,123,123.0,123,59,59.0,59,64,64.0,64,1,0,1,NO
112,27,27.0,27,56,56.0,56,29,29.0,29,1,0,1,NO
119,17,17.0,17,24,24.0,24,7,7.0,7,1,0,1,NO
146,19,19.0,19,16,16.0,16,3,3.0,3,1,0,1,NO
86,0,0.0,0,0,0.0,0,0,0.0,0,0,0,0,NO
69,0,0.0,0,0,0.0,0,0,0.0,0,0,0,0,NO
88,0,0.0,0,0,0.0,0,0,0.0,0,0,0,0,NO
42,0,0.0,0,0,0.0,0,0,0.0,0,0,0,0,NO
32,0,0.0,0,0,0.0,0,0,0.0,0,0,0,0,NO
56,0,0.0,0,0,0.0,0,0,0.0,0,0,0,0,NO
56,5,5.0,5,0,0.0,0,5,5.0,5,1,0,1,NO
89,8,8.0,8,0,0.0,0,8,8.0,8,1,0,1,NO
40,5,5.0,5,0,0.0,0,5,5.0,5,1,0,1,NO
80,8,8.0,8,0,0.0,0,8,8.0,8,1,0,1,NO
46,0,0.0,0,0,0.0,0,0,0.0,0,0,0,0,NO
46,0,0.0,0,0,0.0,0,0,0.0,0,0,0,0,NO
68,68,68.0,68,0,0.0,0,68,68.0,68,1,0,1,NO
80,80,80.0,80,0,0.0,0,80,80.0,80,1,0,1,NO
66,66,66.0,66,0,0.0,0,66,66.0,66,1,0,1,NO
100,0,0.0,0,0,0.0,0,0,0.0,0,0,0,0,NO
32,0,0.0,0,0,0.0,0,0,0.0,0,0,0,0,NO
31,31,31.0,31,0,0.0,0,31,31.0,31,1,0,1,NO
36,36,36.0,36,0,0.0,0,36,36.0,36,1,0,1,NO
59,59,59.0,59,0,0.0,0,59,59.0,59,1,0,1,NO
44,0,0.0,0,0,0.0,0,0,0.0,0,0,0,0,NO
29,0,0.0,0,0,0.0,0,0,0.0,0,0,0,0,NO
280,0,0.0,0,0,0.0,0,0,0.0,0,0,0,0,NO
67,73,9.125,15,53,6.625,10,26,3.25,5,8,1,3,YES
60,0,0.0,0,0,0.0,0,0,0.0,0,0,0,0,NO
46,0,0.0,0,0,0.0,0,0,0.0,0,0,0,0,NO
133,0,0.0,0,0,0.0,0,0,0.0,0,0,0,0,NO
333,0,0.0,0,0,0.0,0,0,0.0,0,0,0,0,NO
36,0,0.0,0,0,0.0,0,0,0.0,0,0,0,0,NO
44,0,0.0,0,0,0.0,0,0,0.0,0,0,0,0,NO
741,0,0.0,0,0,0.0,0,0,0.0,0,0,0,0,NO
26,0,0.0,0,0,0.0,0,0,0.0,0,0,0,0,NO
70,0,0.0,0,0,0.0,0,0,0.0,0,0,0,0,NO
213,0,0.0,0,0,0.0,0,0,0.0,0,0,0,0,NO
192,0,0.0,0,0,0.0,0,0,0.0,0,0,0,0,NO
562,0,0.0,0,0,0.0,0,0,0.0,0,0,0,0,NO
46,0,0.0,0,0,0.0,0,0,0.0,0,0,0,0,NO
31,0,0.0,0,0,0.0,0,0,0.0,0,0,0,0,NO
83,0,0.0,0,0,0.0,0,0,0.0,0,0,0,0,NO
71,0,0.0,0,0,0.0,0,0,0.0,0,0,0,0,NO
83,0,0.0,0,0,0.0,0,0,0.0,0,0,0,0,NO
40,0,0.0,0,0,0.0,0,0,0.0,0,0,0,0,NO
32,0,0.0,0,0,0.0,0,0,0.0,0,0,0,0,NO
57,0,0.0,0,0,0.0,0,0,0.0,0,0,0,0,NO
64,0,0.0,0,0,0.0,0,0,0.0,0,0,0,0,NO
94,0,0.0,0,0,0.0,0,0,0.0,0,0,0,0,NO
45,0,0.0,0,0,0.0,0,0,0.0,0,0,0,0,NO
98,0,0.0,0,0,0.0,0,0,0.0,0,0,0,0,NO
46,0,0.0,0,0,0.0,0,0,0.0,0,0,0,0,NO
46,0,0.0,0,0,0.0,0,0,0.0,0,0,0,0,NO
349,0,0.0,0,0,0.0,0,0,0.0,0,0,0,0,NO
143,0,0.0,0,0,0.0,0,0,0.0,0,0,0,0,NO
81,0,0.0,0,0,0.0,0,0,0.0,0,0,0,0,NO
132,0,0.0,0,0,0.0,0,0,0.0,0,0,0,0,NO
162,0,0.0,0,0,0.0,0,0,0.0,0,0,0,0,NO
85,0,0.0,0,0,0.0,0,0,0.0,0,0,0,0,NO
454,0,0.0,0,0,0.0,0,0,0.0,0,0,0,0,NO
312,0,0.0,0,0,0.0,0,0,0.0,0,0,0,0,NO
49,0,0.0,0,0,0.0,0,0,0.0,0,0,0,0,NO
32,0,0.0,0,0,0.0,0,0,0.0,0,0,0,0,NO
64,0,0.0,0,0,0.0,0,0,0.0,0,0,0,0,NO
105,0,0.0,0,0,0.0,0,0,0.0,0,0,0,0,NO
82,0,0.0,0,0,0.0,0,0,0.0,0,0,0,0,NO
111,0,0.0,0,0,0.0,0,0,0.0,0,0,0,0,NO
42,0,0.0,0,0,0.0,0,0,0.0,0,0,0,0,NO
63,0,0.0,0,0,0.0,0,0,0.0,0,0,0,0,NO
235,0,0.0,0,0,0.0,0,0,0.0,0,0,0,0,NO
75,0,0.0,0,0,0.0,0,0,0.0,0,0,0,0,NO
43,0,0.0,0,0,0.0,0,0,0.0,0,0,0,0,NO
33,0,0.0,0,0,0.0,0,0,0.0,0,0,0,0,NO
66,0,0.0,0,0,0.0,0,0,0.0,0,0,0,0,NO
99,0,0.0,0,0,0.0,0,0,0.0,0,0,0,0,NO
40,0,0.0,0,0,0.0,0,0,0.0,0,0,0,0,NO
160,0,0.0,0,0,0.0,0,0,0.0,0,0,0,0,NO
40,0,0.0,0,0,0.0,0,0,0.0,0,0,0,0,NO
32,0,0.0,0,0,0.0,0,0,0.0,0,0,0,0,NO
547,547,547.0,547,0,0.0,0,547,547.0,547,1,0,1,NO
309,309,309.0,309,0,0.0,0,309,309.0,309,1,0,1,NO
101,101,101.0,101,0,0.0,0,101,101.0,101,1,0,1,NO
281,283,94.33333333333333,281,2,0.6666666666666666,1,281,93.66666666666667,281,3,1,2,YES
72,72,72.0,72,0,0.0,0,72,72.0,72,1,0,1,NO
70,70,70.0,70,0,0.0,0,70,70.0,70,1,0,1,NO
158,158,158.0,158,0,0.0,0,158,158.0,158,1,0,1,NO
58,58,58.0,58,0,0.0,0,58,58.0,58,1,0,1,NO
82,82,82.0,82,0,0.0,0,82,82.0,82,1,0,1,NO
86,0,0.0,0,0,0.0,0,0,0.0,0,0,0,0,NO
25,0,0.0,0,0,0.0,0,0,0.0,0,0,0,0,NO
41,0,0.0,0,0,0.0,0,0,0.0,0,0,0,0,NO
213,0,0.0,0,0,0.0,0,0,0.0,0,0,0,0,NO
98,0,0.0,0,0,0.0,0,0,0.0,0,0,0,0,NO
184,0,0.0,0,0,0.0,0,0,0.0,0,0,0,0,NO
29,0,0.0,0,0,0.0,0,0,0.0,0,0,0,0,NO
29,0,0.0,0,0,0.0,0,0,0.0,0,0,0,0,NO
44,0,0.0,0,0,0.0,0,0,0.0,0,0,0,0,NO
56,23,3.8333333333333335,5,8,1.3333333333333333,3,15,2.5,3,6,0,4,NO
43,0,0.0,0,0,0.0,0,0,0.0,0,0,0,0,NO
198,0,0.0,0,0,0.0,0,0,0.0,0,0,0,0,NO
285,5,1.0,1,5,1.0,1,0,0.0,0,5,0,4,NO
27,0,0.0,0,0,0.0,0,0,0.0,0,0,0,0,NO
38,0,0.0,0,0,0.0,0,0,0.0,0,0,0,0,NO
27,0,0.0,0,0,0.0,0,0,0.0,0,0,0,0,NO
41,0,0.0,0,0,0.0,0,0,0.0,0,0,0,0,NO
87,0,0.0,0,0,0.0,0,0,0.0,0,0,0,0,NO
28,0,0.0,0,0,0.0,0,0,0.0,0,0,0,0,NO
341,11,11.0,11,7,7.0,7,4,4.0,4,1,0,1,NO
46,0,0.0,0,0,0.0,0,0,0.0,0,0,0,0,NO
52,0,0.0,0,0,0.0,0,0,0.0,0,0,0,0,NO
38,0,0.0,0,0,0.0,0,0,0.0,0,0,0,0,NO
52,0,0.0,0,0,0.0,0,0,0.0,0,0,0,0,NO
38,0,0.0,0,0,0.0,0,0,0.0,0,0,0,0,NO
43,0,0.0,0,0,0.0,0,0,0.0,0,0,0,0,NO
48,1,1.0,1,2,2.0,2,1,1.0,1,1,0,1,NO
50,0,0.0,0,0,0.0,0,0,0.0,0,0,0,0,NO
25,0,0.0,0,0,0.0,0,0,0.0,0,0,0,0,NO
113,0,0.0,0,0,0.0,0,0,0.0,0,0,0,0,NO
36,0,0.0,0,0,0.0,0,0,0.0,0,0,0,0,NO
116,0,0.0,0,0,0.0,0,0,0.0,0,0,0,0,NO
178,0,0.0,0,0,0.0,0,0,0.0,0,0,0,0,NO
48,0,0.0,0,0,0.0,0,0,0.0,0,0,0,0,NO
32,0,0.0,0,0,0.0,0,0,0.0,0,0,0,0,NO
34,0,0.0,0,0,0.0,0,0,0.0,0,0,0,0,NO
26,0,0.0,0,0,0.0,0,0,0.0,0,0,0,0,NO
51,0,0.0,0,0,0.0,0,0,0.0,0,0,0,0,NO
31,0,0.0,0,0,0.0,0,0,0.0,0,0,0,0,NO
112,0,0.0,0,0,0.0,0,0,0.0,0,0,0,0,NO
26,0,0.0,0,0,0.0,0,0,0.0,0,0,0,0,NO
30,0,0.0,0,0,0.0,0,0,0.0,0,0,0,0,NO
40,0,0.0,0,0,0.0,0,0,0.0,0,0,0,0,NO
60,0,0.0,0,0,0.0,0,0,0.0,0,0,0,0,NO
49,0,0.0,0,0,0.0,0,0,0.0,0,0,0,0,NO
58,0,0.0,0,0,0.0,0,0,0.0,0,0,0,0,NO
37,0,0.0,0,0,0.0,0,0,0.0,0,0,0,0,NO
289,0,0.0,0,0,0.0,0,0,0.0,0,0,0,0,NO
102,0,0.0,0,0,0.0,0,0,0.0,0,0,0,0,NO
63,0,0.0,0,0,0.0,0,0,0.0,0,0,0,0,NO
31,0,0.0,0,0,0.0,0,0,0.0,0,0,0,0,NO
84,0,0.0,0,0,0.0,0,0,0.0,0,0,0,0,NO
41,0,0.0,0,0,0.0,0,0,0.0,0,0,0,0,NO
28,0,0.0,0,0,0.0,0,0,0.0,0,0,0,0,NO
34,0,0.0,0,0,0.0,0,0,0.0,0,0,0,0,NO
26,0,0.0,0,0,0.0,0,0,0.0,0,0,0,0,NO
79,0,0.0,0,0,0.0,0,0,0.0,0,0,0,0,NO
60,0,0.0,0,0,0.0,0,0,0.0,0,0,0,0,NO
56,0,0.0,0,0,0.0,0,0,0.0,0,0,0,0,NO
126,0,0.0,0,0,0.0,0,0,0.0,0,0,0,0,NO
76,0,0.0,0,0,0.0,0,0,0.0,0,0,0,0,NO
87,0,0.0,0,0,0.0,0,0,0.0,0,0,0,0,NO
38,0,0.0,0,0,0.0,0,0,0.0,0,0,0,0,NO
39,0,0.0,0,0,0.0,0,0,0.0,0,0,0,0,NO
38,0,0.0,0,0,0.0,0,0,0.0,0,0,0,0,NO
40,0,0.0,0,0,0.0,0,0,0.0,0,0,0,0,NO
41,0,0.0,0,0,0.0,0,0,0.0,0,0,0,0,NO
97,0,0.0,0,0,0.0,0,0,0.0,0,0,0,0,NO
42,0,0.0,0,0,0.0,0,0,0.0,0,0,0,0,NO
34,0,0.0,0,0,0.0,0,0,0.0,0,0,0,0,NO
36,0,0.0,0,0,0.0,0,0,0.0,0,0,0,0,NO
41,0,0.0,0,0,0.0,0,0,0.0,0,0,0,0,NO
44,0,0.0,0,0,0.0,0,0,0.0,0,0,0,0,NO
37,0,0.0,0,0,0.0,0,0,0.0,0,0,0,0,NO
107,0,0.0,0,0,0.0,0,0,0.0,0,0,0,0,NO
334,0,0.0,0,0,0.0,0,0,0.0,0,0,0,0,NO
67,0,0.0,0,0,0.0,0,0,0.0,0,0,0,0,NO
88,0,0.0,0,0,0.0,0,0,0.0,0,0,0,0,NO
64,0,0.0,0,0,0.0,0,0,0.0,0,0,0,0,NO
34,0,0.0,0,0,0.0,0,0,0.0,0,0,0,0,NO
37,0,0.0,0,0,0.0,0,0,0.0,0,0,0,0,NO
71,0,0.0,0,0,0.0,0,0,0.0,0,0,0,0,NO
262,0,0.0,0,0,0.0,0,0,0.0,0,0,0,0,NO
97,0,0.0,0,0,0.0,0,0,0.0,0,0,0,0,NO
35,0,0.0,0,0,0.0,0,0,0.0,0,0,0,0,NO
85,0,0.0,0,0,0.0,0,0,0.0,0,0,0,0,NO
49,0,0.0,0,0,0.0,0,0,0.0,0,0,0,0,NO
102,0,0.0,0,0,0.0,0,0,0.0,0,0,0,0,NO
109,0,0.0,0,0,0.0,0,0,0.0,0,0,0,0,NO
133,0,0.0,0,0,0.0,0,0,0.0,0,0,0,0,NO
122,0,0.0,0,0,0.0,0,0,0.0,0,0,0,0,NO
131,0,0.0,0,0,0.0,0,0,0.0,0,0,0,0,NO
177,1,1.0,1,2,2.0,2,1,1.0,1,1,0,1,NO
65,0,0.0,0,0,0.0,0,0,0.0,0,0,0,0,NO
53,0,0.0,0,0,0.0,0,0,0.0,0,0,0,0,NO
37,0,0.0,0,0,0.0,0,0,0.0,0,0,0,0,NO
76,0,0.0,0,0,0.0,0,0,0.0,0,0,0,0,NO
70,0,0.0,0,0,0.0,0,0,0.0,0,0,0,0,NO
43,0,0.0,0,0,0.0,0,0,0.0,0,0,0,0,NO
29,0,0.0,0,0,0.0,0,0,0.0,0,0,0,0,NO
24,0,0.0,0,0,0.0,0,0,0.0,0,0,0,0,NO
41,0,0.0,0,0,0.0,0,0,0.0,0,0,0,0,NO
306,0,0.0,0,0,0.0,0,0,0.0,0,0,0,0,NO
120,0,0.0,0,0,0.0,0,0,0.0,0,0,0,0,NO
137,0,0.0,0,0,0.0,0,0,0.0,0,0,0,0,NO
95,0,0.0,0,0,0.0,0,0,0.0,0,0,0,0,NO
96,0,0.0,0,0,0.0,0,0,0.0,0,0,0,0,NO
56,0,0.0,0,0,0.0,0,0,0.0,0,0,0,0,NO
40,0,0.0,0,0,0.0,0,0,0.0,0,0,0,0,NO
350,0,0.0,0,0,0.0,0,0,0.0,0,0,0,0,NO
112,0,0.0,0,0,0.0,0,0,0.0,0,0,0,0,NO
71,0,0.0,0,0,0.0,0,0,0.0,0,0,0,0,NO
93,0,0.0,0,0,0.0,0,0,0.0,0,0,0,0,NO
381,0,0.0,0,0,0.0,0,0,0.0,0,0,0,0,NO
115,0,0.0,0,0,0.0,0,0,0.0,0,0,0,0,NO
69,0,0.0,0,0,0.0,0,0,0.0,0,0,0,0,NO
98,0,0.0,0,0,0.0,0,0,0.0,0,0,0,0,NO
157,9,9.0,9,14,14.0,14,5,5.0,5,1,0,1,NO
59,0,0.0,0,0,0.0,0,0,0.0,0,0,0,0,NO
30,0,0.0,0,0,0.0,0,0,0.0,0,0,0,0,NO
57,0,0.0,0,0,0.0,0,0,0.0,0,0,0,0,NO
182,0,0.0,0,0,0.0,0,0,0.0,0,0,0,0,NO
160,0,0.0,0,0,0.0,0,0,0.0,0,0,0,0,NO
32,0,0.0,0,0,0.0,0,0,0.0,0,0,0,0,NO
24,0,0.0,0,0,0.0,0,0,0.0,0,0,0,0,NO
50,0,0.0,0,0,0.0,0,0,0.0,0,0,0,0,NO
50,0,0.0,0,0,0.0,0,0,0.0,0,0,0,0,NO
63,0,0.0,0,0,0.0,0,0,0.0,0,0,0,0,NO
116,0,0.0,0,0,0.0,0,0,0.0,0,0,0,0,NO
182,0,0.0,0,0,0.0,0,0,0.0,0,0,0,0,NO
69,0,0.0,0,0,0.0,0,0,0.0,0,0,0,0,NO
27,0,0.0,0,0,0.0,0,0,0.0,0,0,0,0,NO
67,0,0.0,0,0,0.0,0,0,0.0,0,0,0,0,NO
44,0,0.0,0,0,0.0,0,0,0.0,0,0,0,0,NO
33,0,0.0,0,0,0.0,0,0,0.0,0,0,0,0,NO
72,0,0.0,0,0,0.0,0,0,0.0,0,0,0,0,NO
89,0,0.0,0,0,0.0,0,0,0.0,0,0,0,0,NO
304,0,0.0,0,0,0.0,0,0,0.0,0,0,0,0,NO
2521,0,0.0,0,0,0.0,0,0,0.0,0,0,0,0,NO
36,0,0.0,0,0,0.0,0,0,0.0,0,0,0,0,NO
32,0,0.0,0,0,0.0,0,0,0.0,0,0,0,0,NO
49,0,0.0,0,0,0.0,0,0,0.0,0,0,0,0,NO
27,0,0.0,0,0,0.0,0,0,0.0,0,0,0,0,NO
31,0,0.0,0,0,0.0,0,0,0.0,0,0,0,0,NO
72,0,0.0,0,0,0.0,0,0,0.0,0,0,0,0,NO
83,0,0.0,0,0,0.0,0,0,0.0,0,0,0,0,NO
82,0,0.0,0,0,0.0,0,0,0.0,0,0,0,0,NO
496,0,0.0,0,0,0.0,0,0,0.0,0,0,0,0,NO
242,0,0.0,0,0,0.0,0,0,0.0,0,0,0,0,NO
351,0,0.0,0,0,0.0,0,0,0.0,0,0,0,0,NO
32,0,0.0,0,0,0.0,0,0,0.0,0,0,0,0,NO
40,0,0.0,0,0,0.0,0,0,0.0,0,0,0,0,NO
452,0,0.0,0,0,0.0,0,0,0.0,0,0,0,0,NO
399,0,0.0,0,0,0.0,0,0,0.0,0,0,0,0,NO
50,0,0.0,0,0,0.0,0,0,0.0,0,0,0,0,NO
257,0,0.0,0,0,0.0,0,0,0.0,0,0,0,0,NO
124,0,0.0,0,0,0.0,0,0,0.0,0,0,0,0,NO
184,0,0.0,0,0,0.0,0,0,0.0,0,0,0,0,NO
248,0,0.0,0,0,0.0,0,0,0.0,0,0,0,0,NO
26,0,0.0,0,0,0.0,0,0,0.0,0,0,0,0,NO
22,0,0.0,0,0,0.0,0,0,0.0,0,0,0,0,NO
229,0,0.0,0,0,0.0,0,0,0.0,0,0,0,0,NO
311,0,0.0,0,0,0.0,0,0,0.0,0,0,0,0,NO
158,0,0.0,0,0,0.0,0,0,0.0,0,0,0,0,NO
420,0,0.0,0,0,0.0,0,0,0.0,0,0,0,0,NO
35,0,0.0,0,0,0.0,0,0,0.0,0,0,0,0,NO
24,0,0.0,0,0,0.0,0,0,0.0,0,0,0,0,NO
25,0,0.0,0,0,0.0,0,0,0.0,0,0,0,0,NO
119,0,0.0,0,0,0.0,0,0,0.0,0,0,0,0,NO
153,0,0.0,0,0,0.0,0,0,0.0,0,0,0,0,NO
51,0,0.0,0,0,0.0,0,0,0.0,0,0,0,0,NO
51,0,0.0,0,0,0.0,0,0,0.0,0,0,0,0,NO
41,0,0.0,0,0,0.0,0,0,0.0,0,0,0,0,NO
22,0,0.0,0,0,0.0,0,0,0.0,0,0,0,0,NO
244,0,0.0,0,0,0.0,0,0,0.0,0,0,0,0,NO
24,0,0.0,0,0,0.0,0,0,0.0,0,0,0,0,NO
27,0,0.0,0,0,0.0,0,0,0.0,0,0,0,0,NO
44,0,0.0,0,0,0.0,0,0,0.0,0,0,0,0,NO
222,0,0.0,0,0,0.0,0,0,0.0,0,0,0,0,NO
126,0,0.0,0,0,0.0,0,0,0.0,0,0,0,0,NO
216,0,0.0,0,0,0.0,0,0,0.0,0,0,0,0,NO
65,0,0.0,0,0,0.0,0,0,0.0,0,0,0,0,NO
28,0,0.0,0,0,0.0,0,0,0.0,0,0,0,0,NO
722,0,0.0,0,0,0.0,0,0,0.0,0,0,0,0,NO
244,11,5.5,10,3,1.5,2,10,5.0,9,2,0,1,NO
36,0,0.0,0,0,0.0,0,0,0.0,0,0,0,0,NO
40,0,0.0,0,0,0.0,0,0,0.0,0,0,0,0,NO
369,0,0.0,0,0,0.0,0,0,0.0,0,0,0,0,NO
30,0,0.0,0,0,0.0,0,0,0.0,0,0,0,0,NO
40,0,0.0,0,0,0.0,0,0,0.0,0,0,0,0,NO
35,0,0.0,0,0,0.0,0,0,0.0,0,0,0,0,NO
125,0,0.0,0,0,0.0,0,0,0.0,0,0,0,0,NO
51,0,0.0,0,0,0.0,0,0,0.0,0,0,0,0,NO
55,55,55.0,55,0,0.0,0,55,55.0,55,1,0,1,NO
52,0,0.0,0,0,0.0,0,0,0.0,0,0,0,0,NO
65,0,0.0,0,0,0.0,0,0,0.0,0,0,0,0,NO
86,0,0.0,0,0,0.0,0,0,0.0,0,0,0,0,NO
116,0,0.0,0,0,0.0,0,0,0.0,0,0,0,0,NO
61,0,0.0,0,0,0.0,0,0,0.0,0,0,0,0,NO
59,0,0.0,0,0,0.0,0,0,0.0,0,0,0,0,NO
216,0,0.0,0,0,0.0,0,0,0.0,0,0,0,0,NO
270,0,0.0,0,0,0.0,0,0,0.0,0,0,0,0,NO
81,0,0.0,0,0,0.0,0,0,0.0,0,0,0,0,NO
74,0,0.0,0,0,0.0,0,0,0.0,0,0,0,0,NO
214,0,0.0,0,0,0.0,0,0,0.0,0,0,0,0,NO
79,0,0.0,0,0,0.0,0,0,0.0,0,0,0,0,NO
118,0,0.0,0,0,0.0,0,0,0.0,0,0,0,0,NO
75,0,0.0,0,0,0.0,0,0,0.0,0,0,0,0,NO
130,0,0.0,0,0,0.0,0,0,0.0,0,0,0,0,NO
81,0,0.0,0,0,0.0,0,0,0.0,0,0,0,0,NO
36,0,0.0,0,0,0.0,0,0,0.0,0,0,0,0,NO
75,0,0.0,0,0,0.0,0,0,0.0,0,0,0,0,NO
213,0,0.0,0,0,0.0,0,0,0.0,0,0,0,0,NO
26,0,0.0,0,0,0.0,0,0,0.0,0,0,0,0,NO
135,0,0.0,0,0,0.0,0,0,0.0,0,0,0,0,NO
71,0,0.0,0,0,0.0,0,0,0.0,0,0,0,0,NO
209,0,0.0,0,0,0.0,0,0,0.0,0,0,0,0,NO
189,0,0.0,0,0,0.0,0,0,0.0,0,0,0,0,NO
66,0,0.0,0,0,0.0,0,0,0.0,0,0,0,0,NO
188,0,0.0,0,0,0.0,0,0,0.0,0,0,0,0,NO
69,0,0.0,0,0,0.0,0,0,0.0,0,0,0,0,NO
65,0,0.0,0,0,0.0,0,0,0.0,0,0,0,0,NO
108,0,0.0,0,0,0.0,0,0,0.0,0,0,0,0,NO
46,0,0.0,0,0,0.0,0,0,0.0,0,0,0,0,NO
53,0,0.0,0,0,0.0,0,0,0.0,0,0,0,0,NO
447,0,0.0,0,0,0.0,0,0,0.0,0,0,0,0,NO
386,0,0.0,0,0,0.0,0,0,0.0,0,0,0,0,NO
30,0,0.0,0,0,0.0,0,0,0.0,0,0,0,0,NO
134,0,0.0,0,0,0.0,0,0,0.0,0,0,0,0,NO
41,0,0.0,0,0,0.0,0,0,0.0,0,0,0,0,NO
22,0,0.0,0,0,0.0,0,0,0.0,0,0,0,0,NO
177,1,1.0,1,1,1.0,1,0,0.0,0,1,0,1,NO
357,0,0.0,0,0,0.0,0,0,0.0,0,0,0,0,NO
243,0,0.0,0,0,0.0,0,0,0.0,0,0,0,0,NO
31,0,0.0,0,0,0.0,0,0,0.0,0,0,0,0,NO
22,0,0.0,0,0,0.0,0,0,0.0,0,0,0,0,NO
541,0,0.0,0,0,0.0,0,0,0.0,0,0,0,0,NO
247,0,0.0,0,0,0.0,0,0,0.0,0,0,0,0,NO
78,0,0.0,0,0,0.0,0,0,0.0,0,0,0,0,NO
33,0,0.0,0,0,0.0,0,0,0.0,0,0,0,0,NO
81,0,0.0,0,0,0.0,0,0,0.0,0,0,0,0,NO
64,0,0.0,0,0,0.0,0,0,0.0,0,0,0,0,NO
108,0,0.0,0,0,0.0,0,0,0.0,0,0,0,0,NO
57,0,0.0,0,0,0.0,0,0,0.0,0,0,0,0,NO
76,0,0.0,0,0,0.0,0,0,0.0,0,0,0,0,NO
79,0,0.0,0,0,0.0,0,0,0.0,0,0,0,0,NO
70,0,0.0,0,0,0.0,0,0,0.0,0,0,0,0,NO
32,0,0.0,0,0,0.0,0,0,0.0,0,0,0,0,NO
31,0,0.0,0,0,0.0,0,0,0.0,0,0,0,0,NO
37,0,0.0,0,0,0.0,0,0,0.0,0,0,0,0,NO
83,0,0.0,0,0,0.0,0,0,0.0,0,0,0,0,NO
22,0,0.0,0,0,0.0,0,0,0.0,0,0,0,0,NO
45,0,0.0,0,0,0.0,0,0,0.0,0,0,0,0,NO
177,0,0.0,0,0,0.0,0,0,0.0,0,0,0,0,NO
28,0,0.0,0,0,0.0,0,0,0.0,0,0,0,0,NO
234,0,0.0,0,0,0.0,0,0,0.0,0,0,0,0,NO
92,0,0.0,0,0,0.0,0,0,0.0,0,0,0,0,NO
286,0,0.0,0,0,0.0,0,0,0.0,0,0,0,0,NO
427,0,0.0,0,0,0.0,0,0,0.0,0,0,0,0,NO
633,0,0.0,0,0,0.0,0,0,0.0,0,0,0,0,NO
211,0,0.0,0,0,0.0,0,0,0.0,0,0,0,0,NO
52,0,0.0,0,0,0.0,0,0,0.0,0,0,0,0,NO
87,0,0.0,0,0,0.0,0,0,0.0,0,0,0,0,NO
105,0,0.0,0,0,0.0,0,0,0.0,0,0,0,0,NO
401,0,0.0,0,0,0.0,0,0,0.0,0,0,0,0,NO
35,0,0.0,0,0,0.0,0,0,0.0,0,0,0,0,NO
113,0,0.0,0,0,0.0,0,0,0.0,0,0,0,0,NO
286,0,0.0,0,0,0.0,0,0,0.0,0,0,0,0,NO
75,0,0.0,0,0,0.0,0,0,0.0,0,0,0,0,NO
93,0,0.0,0,0,0.0,0,0,0.0,0,0,0,0,NO
52,0,0.0,0,0,0.0,0,0,0.0,0,0,0,0,NO
393,0,0.0,0,0,0.0,0,0,0.0,0,0,0,0,NO
59,0,0.0,0,0,0.0,0,0,0.0,0,0,0,0,NO
129,0,0.0,0,0,0.0,0,0,0.0,0,0,0,0,NO
24,0,0.0,0,0,0.0,0,0,0.0,0,0,0,0,NO
97,0,0.0,0,0,0.0,0,0,0.0,0,0,0,0,NO
626,0,0.0,0,0,0.0,0,0,0.0,0,0,0,0,NO
62,0,0.0,0,0,0.0,0,0,0.0,0,0,0,0,NO
405,0,0.0,0,0,0.0,0,0,0.0,0,0,0,0,NO
1158,0,0.0,0,0,0.0,0,0,0.0,0,0,0,0,NO
405,0,0.0,0,0,0.0,0,0,0.0,0,0,0,0,NO
607,0,0.0,0,0,0.0,0,0,0.0,0,0,0,0,NO
513,0,0.0,0,0,0.0,0,0,0.0,0,0,0,0,NO
703,0,0.0,0,0,0.0,0,0,0.0,0,0,0,0,NO
1389,0,0.0,0,0,0.0,0,0,0.0,0,0,0,0,NO
878,0,0.0,0,0,0.0,0,0,0.0,0,0,0,0,NO
767,0,0.0,0,0,0.0,0,0,0.0,0,0,0,0,NO
901,0,0.0,0,0,0.0,0,0,0.0,0,0,0,0,NO
751,0,0.0,0,0,0.0,0,0,0.0,0,0,0,0,NO
851,0,0.0,0,0,0.0,0,0,0.0,0,0,0,0,NO
462,0,0.0,0,0,0.0,0,0,0.0,0,0,0,0,NO
2193,0,0.0,0,0,0.0,0,0,0.0,0,0,0,0,NO
62,0,0.0,0,0,0.0,0,0,0.0,0,0,0,0,NO
457,0,0.0,0,0,0.0,0,0,0.0,0,0,0,0,NO
405,0,0.0,0,0,0.0,0,0,0.0,0,0,0,0,NO
506,0,0.0,0,0,0.0,0,0,0.0,0,0,0,0,NO
505,0,0.0,0,0,0.0,0,0,0.0,0,0,0,0,NO
1328,0,0.0,0,0,0.0,0,0,0.0,0,0,0,0,NO
2935,0,0.0,0,0,0.0,0,0,0.0,0,0,0,0,NO
713,0,0.0,0,0,0.0,0,0,0.0,0,0,0,0,NO
525,0,0.0,0,0,0.0,0,0,0.0,0,0,0,0,NO
498,0,0.0,0,0,0.0,0,0,0.0,0,0,0,0,NO
387,0,0.0,0,0,0.0,0,0,0.0,0,0,0,0,NO
914,0,0.0,0,0,0.0,0,0,0.0,0,0,0,0,NO
921,0,0.0,0,0,0.0,0,0,0.0,0,0,0,0,NO
421,0,0.0,0,0,0.0,0,0,0.0,0,0,0,0,NO
506,0,0.0,0,0,0.0,0,0,0.0,0,0,0,0,NO
800,0,0.0,0,0,0.0,0,0,0.0,0,0,0,0,NO
405,0,0.0,0,0,0.0,0,0,0.0,0,0,0,0,NO
405,0,0.0,0,0,0.0,0,0,0.0,0,0,0,0,NO
635,0,0.0,0,0,0.0,0,0,0.0,0,0,0,0,NO
640,0,0.0,0,0,0.0,0,0,0.0,0,0,0,0,NO
460,0,0.0,0,0,0.0,0,0,0.0,0,0,0,0,NO
521,0,0.0,0,0,0.0,0,0,0.0,0,0,0,0,NO
465,0,0.0,0,0,0.0,0,0,0.0,0,0,0,0,NO
113,0,0.0,0,0,0.0,0,0,0.0,0,0,0,0,NO
405,0,0.0,0,0,0.0,0,0,0.0,0,0,0,0,NO
560,0,0.0,0,0,0.0,0,0,0.0,0,0,0,0,NO
631,0,0.0,0,0,0.0,0,0,0.0,0,0,0,0,NO
405,0,0.0,0,0,0.0,0,0,0.0,0,0,0,0,NO
405,0,0.0,0,0,0.0,0,0,0.0,0,0,0,0,NO
406,0,0.0,0,0,0.0,0,0,0.0,0,0,0,0,NO
457,0,0.0,0,0,0.0,0,0,0.0,0,0,0,0,NO
470,0,0.0,0,0,0.0,0,0,0.0,0,0,0,0,NO
405,0,0.0,0,0,0.0,0,0,0.0,0,0,0,0,NO
804,0,0.0,0,0,0.0,0,0,0.0,0,0,0,0,NO
459,0,0.0,0,0,0.0,0,0,0.0,0,0,0,0,NO
754,0,0.0,0,0,0.0,0,0,0.0,0,0,0,0,NO
555,0,0.0,0,0,0.0,0,0,0.0,0,0,0,0,NO
675,0,0.0,0,0,0.0,0,0,0.0,0,0,0,0,NO
470,0,0.0,0,0,0.0,0,0,0.0,0,0,0,0,NO
474,0,0.0,0,0,0.0,0,0,0.0,0,0,0,0,NO
835,0,0.0,0,0,0.0,0,0,0.0,0,0,0,0,NO
65,0,0.0,0,0,0.0,0,0,0.0,0,0,0,0,NO
44114,0,0.0,0,0,0.0,0,0,0.0,0,0,0,0,NO
795,0,0.0,0,0,0.0,0,0,0.0,0,0,0,0,NO
555,0,0.0,0,0,0.0,0,0,0.0,0,0,0,0,NO
405,0,0.0,0,0,0.0,0,0,0.0,0,0,0,0,NO
299,0,0.0,0,0,0.0,0,0,0.0,0,0,0,0,NO
65,0,0.0,0,0,0.0,0,0,0.0,0,0,0,0,NO
74,0,0.0,0,0,0.0,0,0,0.0,0,0,0,0,NO
630,0,0.0,0,0,0.0,0,0,0.0,0,0,0,0,NO
509,0,0.0,0,0,0.0,0,0,0.0,0,0,0,0,NO
663,0,0.0,0,0,0.0,0,0,0.0,0,0,0,0,NO
566,0,0.0,0,0,0.0,0,0,0.0,0,0,0,0,NO
515,0,0.0,0,0,0.0,0,0,0.0,0,0,0,0,NO
387,0,0.0,0,0,0.0,0,0,0.0,0,0,0,0,NO
406,0,0.0,0,0,0.0,0,0,0.0,0,0,0,0,NO
513,0,0.0,0,0,0.0,0,0,0.0,0,0,0,0,NO
916,0,0.0,0,0,0.0,0,0,0.0,0,0,0,0,NO
513,0,0.0,0,0,0.0,0,0,0.0,0,0,0,0,NO
1381,0,0.0,0,0,0.0,0,0,0.0,0,0,0,0,NO
961,0,0.0,0,0,0.0,0,0,0.0,0,0,0,0,NO
553,0,0.0,0,0,0.0,0,0,0.0,0,0,0,0,NO
532,0,0.0,0,0,0.0,0,0,0.0,0,0,0,0,NO
1445,0,0.0,0,0,0.0,0,0,0.0,0,0,0,0,NO
1264,0,0.0,0,0,0.0,0,0,0.0,0,0,0,0,NO
515,0,0.0,0,0,0.0,0,0,0.0,0,0,0,0,NO
387,0,0.0,0,0,0.0,0,0,0.0,0,0,0,0,NO
460,0,0.0,0,0,0.0,0,0,0.0,0,0,0,0,NO
2143,0,0.0,0,0,0.0,0,0,0.0,0,0,0,0,NO
62,0,0.0,0,0,0.0,0,0,0.0,0,0,0,0,NO
2596,0,0.0,0,0,0.0,0,0,0.0,0,0,0,0,NO
1093,0,0.0,0,0,0.0,0,0,0.0,0,0,0,0,NO
68,0,0.0,0,0,0.0,0,0,0.0,0,0,0,0,NO
1900,0,0.0,0,0,0.0,0,0,0.0,0,0,0,0,NO
604,0,0.0,0,0,0.0,0,0,0.0,0,0,0,0,NO
43,0,0.0,0,0,0.0,0,0,0.0,0,0,0,0,NO
77,0,0.0,0,0,0.0,0,0,0.0,0,0,0,0,NO
24,0,0.0,0,0,0.0,0,0,0.0,0,0,0,0,NO
76,0,0.0,0,0,0.0,0,0,0.0,0,0,0,0,NO
64,0,0.0,0,0,0.0,0,0,0.0,0,0,0,0,NO
106,0,0.0,0,0,0.0,0,0,0.0,0,0,0,0,NO
65,0,0.0,0,0,0.0,0,0,0.0,0,0,0,0,NO
61,0,0.0,0,0,0.0,0,0,0.0,0,0,0,0,NO
51,0,0.0,0,0,0.0,0,0,0.0,0,0,0,0,NO
38,0,0.0,0,0,0.0,0,0,0.0,0,0,0,0,NO
44,0,0.0,0,0,0.0,0,0,0.0,0,0,0,0,NO
40,0,0.0,0,0,0.0,0,0,0.0,0,0,0,0,NO
40,0,0.0,0,0,0.0,0,0,0.0,0,0,0,0,NO
40,0,0.0,0,0,0.0,0,0,0.0,0,0,0,0,NO
44,0,0.0,0,0,0.0,0,0,0.0,0,0,0,0,NO
39,0,0.0,0,0,0.0,0,0,0.0,0,0,0,0,NO
39,0,0.0,0,0,0.0,0,0,0.0,0,0,0,0,NO
44,0,0.0,0,0,0.0,0,0,0.0,0,0,0,0,NO
130,0,0.0,0,0,0.0,0,0,0.0,0,0,0,0,NO
140,0,0.0,0,0,0.0,0,0,0.0,0,0,0,0,NO
101,0,0.0,0,0,0.0,0,0,0.0,0,0,0,0,NO
695,0,0.0,0,0,0.0,0,0,0.0,0,0,0,0,NO
32,0,0.0,0,0,0.0,0,0,0.0,0,0,0,0,NO
52,0,0.0,0,0,0.0,0,0,0.0,0,0,0,0,NO
49,0,0.0,0,0,0.0,0,0,0.0,0,0,0,0,NO
60,0,0.0,0,0,0.0,0,0,0.0,0,0,0,0,NO
63,0,0.0,0,0,0.0,0,0,0.0,0,0,0,0,NO
31,0,0.0,0,0,0.0,0,0,0.0,0,0,0,0,NO
59,0,0.0,0,0,0.0,0,0,0.0,0,0,0,0,NO
53,0,0.0,0,0,0.0,0,0,0.0,0,0,0,0,NO
57,0,0.0,0,0,0.0,0,0,0.0,0,0,0,0,NO
164,0,0.0,0,0,0.0,0,0,0.0,0,0,0,0,NO
612,0,0.0,0,0,0.0,0,0,0.0,0,0,0,0,NO
113,0,0.0,0,0,0.0,0,0,0.0,0,0,0,0,NO
75,0,0.0,0,0,0.0,0,0,0.0,0,0,0,0,NO
26,0,0.0,0,0,0.0,0,0,0.0,0,0,0,0,NO
28,0,0.0,0,0,0.0,0,0,0.0,0,0,0,0,NO
26,0,0.0,0,0,0.0,0,0,0.0,0,0,0,0,NO
26,0,0.0,0,0,0.0,0,0,0.0,0,0,0,0,NO
152,0,0.0,0,0,0.0,0,0,0.0,0,0,0,0,NO
202,0,0.0,0,0,0.0,0,0,0.0,0,0,0,0,NO
31,0,0.0,0,0,0.0,0,0,0.0,0,0,0,0,NO
209,0,0.0,0,0,0.0,0,0,0.0,0,0,0,0,NO
30,0,0.0,0,0,0.0,0,0,0.0,0,0,0,0,NO
133,0,0.0,0,0,0.0,0,0,0.0,0,0,0,0,NO
411,0,0.0,0,0,0.0,0,0,0.0,0,0,0,0,NO
118,0,0.0,0,0,0.0,0,0,0.0,0,0,0,0,NO
58,0,0.0,0,0,0.0,0,0,0.0,0,0,0,0,NO
144,0,0.0,0,0,0.0,0,0,0.0,0,0,0,0,NO
43,0,0.0,0,0,0.0,0,0,0.0,0,0,0,0,NO
56,0,0.0,0,0,0.0,0,0,0.0,0,0,0,0,NO
35,0,0.0,0,0,0.0,0,0,0.0,0,0,0,0,NO
114,0,0.0,0,0,0.0,0,0,0.0,0,0,0,0,NO
154,0,0.0,0,0,0.0,0,0,0.0,0,0,0,0,NO
31,0,0.0,0,0,0.0,0,0,0.0,0,0,0,0,NO
157,0,0.0,0,0,0.0,0,0,0.0,0,0,0,0,NO
30,0,0.0,0,0,0.0,0,0,0.0,0,0,0,0,NO
158,0,0.0,0,0,0.0,0,0,0.0,0,0,0,0,NO
83,0,0.0,0,0,0.0,0,0,0.0,0,0,0,0,NO
153,0,0.0,0,0,0.0,0,0,0.0,0,0,0,0,NO
68,0,0.0,0,0,0.0,0,0,0.0,0,0,0,0,NO
273,0,0.0,0,0,0.0,0,0,0.0,0,0,0,0,NO
91,0,0.0,0,0,0.0,0,0,0.0,0,0,0,0,NO
56,0,0.0,0,0,0.0,0,0,0.0,0,0,0,0,NO
74,0,0.0,0,0,0.0,0,0,0.0,0,0,0,0,NO
57,0,0.0,0,0,0.0,0,0,0.0,0,0,0,0,NO
67,0,0.0,0,0,0.0,0,0,0.0,0,0,0,0,NO
122,0,0.0,0,0,0.0,0,0,0.0,0,0,0,0,NO
85,0,0.0,0,0,0.0,0,0,0.0,0,0,0,0,NO
118,0,0.0,0,0,0.0,0,0,0.0,0,0,0,0,NO
70,0,0.0,0,0,0.0,0,0,0.0,0,0,0,0,NO
76,0,0.0,0,0,0.0,0,0,0.0,0,0,0,0,NO
63,0,0.0,0,0,0.0,0,0,0.0,0,0,0,0,NO
88,0,0.0,0,0,0.0,0,0,0.0,0,0,0,0,NO
165,0,0.0,0,0,0.0,0,0,0.0,0,0,0,0,NO
34,0,0.0,0,0,0.0,0,0,0.0,0,0,0,0,NO
38,0,0.0,0,0,0.0,0,0,0.0,0,0,0,0,NO
39,0,0.0,0,0,0.0,0,0,0.0,0,0,0,0,NO
23,0,0.0,0,0,0.0,0,0,0.0,0,0,0,0,NO
22,0,0.0,0,0,0.0,0,0,0.0,0,0,0,0,NO
60,0,0.0,0,0,0.0,0,0,0.0,0,0,0,0,NO
24,0,0.0,0,0,0.0,0,0,0.0,0,0,0,0,NO
22,0,0.0,0,0,0.0,0,0,0.0,0,0,0,0,NO
53,0,0.0,0,0,0.0,0,0,0.0,0,0,0,0,NO
45,0,0.0,0,0,0.0,0,0,0.0,0,0,0,0,NO
50,0,0.0,0,0,0.0,0,0,0.0,0,0,0,0,NO
38,0,0.0,0,0,0.0,0,0,0.0,0,0,0,0,NO
31,0,0.0,0,0,0.0,0,0,0.0,0,0,0,0,NO
30,0,0.0,0,0,0.0,0,0,0.0,0,0,0,0,NO
31,0,0.0,0,0,0.0,0,0,0.0,0,0,0,0,NO
37,0,0.0,0,0,0.0,0,0,0.0,0,0,0,0,NO
31,0,0.0,0,0,0.0,0,0,0.0,0,0,0,0,NO
32,0,0.0,0,0,0.0,0,0,0.0,0,0,0,0,NO
211,0,0.0,0,0,0.0,0,0,0.0,0,0,0,0,NO
262,0,0.0,0,0,0.0,0,0,0.0,0,0,0,0,NO
27,0,0.0,0,0,0.0,0,0,0.0,0,0,0,0,NO
112,0,0.0,0,0,0.0,0,0,0.0,0,0,0,0,NO
109,0,0.0,0,0,0.0,0,0,0.0,0,0,0,0,NO
139,0,0.0,0,104,26.0,26,104,26.0,26,4,1,3,YES
79,0,0.0,0,0,0.0,0,0,0.0,0,0,0,0,NO
82,0,0.0,0,0,0.0,0,0,0.0,0,0,0,0,NO
204,0,0.0,0,0,0.0,0,0,0.0,0,0,0,0,NO
40,0,0.0,0,0,0.0,0,0,0.0,0,0,0,0,NO
184,0,0.0,0,0,0.0,0,0,0.0,0,0,0,0,NO
50,0,0.0,0,0,0.0,0,0,0.0,0,0,0,0,NO
96,0,0.0,0,0,0.0,0,0,0.0,0,0,0,0,NO
49,0,0.0,0,0,0.0,0,0,0.0,0,0,0,0,NO
52,0,0.0,0,0,0.0,0,0,0.0,0,0,0,0,NO
31,0,0.0,0,0,0.0,0,0,0.0,0,0,0,0,NO
72,0,0.0,0,0,0.0,0,0,0.0,0,0,0,0,NO
43,0,0.0,0,0,0.0,0,0,0.0,0,0,0,0,NO
28,0,0.0,0,0,0.0,0,0,0.0,0,0,0,0,NO
116,0,0.0,0,0,0.0,0,0,0.0,0,0,0,0,NO
25,0,0.0,0,0,0.0,0,0,0.0,0,0,0,0,NO
217,0,0.0,0,0,0.0,0,0,0.0,0,0,0,0,NO
274,0,0.0,0,0,0.0,0,0,0.0,0,0,0,0,NO
75,0,0.0,0,0,0.0,0,0,0.0,0,0,0,0,NO
163,7,7.0,7,2,2.0,2,5,5.0,5,1,0,1,NO
76,8,4.0,8,15,7.5,13,7,3.5,5,2,0,1,NO
110,0,0.0,0,0,0.0,0,0,0.0,0,0,0,0,NO
94,0,0.0,0,0,0.0,0,0,0.0,0,0,0,0,NO
99,0,0.0,0,0,0.0,0,0,0.0,0,0,0,0,NO
25,0,0.0,0,0,0.0,0,0,0.0,0,0,0,0,NO
25,0,0.0,0,0,0.0,0,0,0.0,0,0,0,0,NO
33,0,0.0,0,0,0.0,0,0,0.0,0,0,0,0,NO
711,7,7.0,7,0,0.0,0,7,7.0,7,1,0,1,NO
111,0,0.0,0,0,0.0,0,0,0.0,0,0,0,0,NO
168,0,0.0,0,0,0.0,0,0,0.0,0,0,0,0,NO
54,0,0.0,0,0,0.0,0,0,0.0,0,0,0,0,NO
49,0,0.0,0,0,0.0,0,0,0.0,0,0,0,0,NO
40,0,0.0,0,0,0.0,0,0,0.0,0,0,0,0,NO
45,0,0.0,0,0,0.0,0,0,0.0,0,0,0,0,NO
61,0,0.0,0,0,0.0,0,0,0.0,0,0,0,0,NO
119,0,0.0,0,0,0.0,0,0,0.0,0,0,0,0,NO
132,0,0.0,0,0,0.0,0,0,0.0,0,0,0,0,NO
87,0,0.0,0,0,0.0,0,0,0.0,0,0,0,0,NO
516,0,0.0,0,0,0.0,0,0,0.0,0,0,0,0,NO
81,0,0.0,0,0,0.0,0,0,0.0,0,0,0,0,NO
219,0,0.0,0,0,0.0,0,0,0.0,0,0,0,0,NO
125,0,0.0,0,0,0.0,0,0,0.0,0,0,0,0,NO
363,0,0.0,0,0,0.0,0,0,0.0,0,0,0,0,NO
98,0,0.0,0,0,0.0,0,0,0.0,0,0,0,0,NO
340,0,0.0,0,0,0.0,0,0,0.0,0,0,0,0,NO
296,0,0.0,0,0,0.0,0,0,0.0,0,0,0,0,NO
54,0,0.0,0,0,0.0,0,0,0.0,0,0,0,0,NO
518,5,5.0,5,6,6.0,6,1,1.0,1,1,0,1,NO
138,0,0.0,0,0,0.0,0,0,0.0,0,0,0,0,NO
426,0,0.0,0,0,0.0,0,0,0.0,0,0,0,0,NO
184,0,0.0,0,0,0.0,0,0,0.0,0,0,0,0,NO
116,0,0.0,0,0,0.0,0,0,0.0,0,0,0,0,NO
56,0,0.0,0,0,0.0,0,0,0.0,0,0,0,0,NO
40,0,0.0,0,0,0.0,0,0,0.0,0,0,0,0,NO
350,0,0.0,0,0,0.0,0,0,0.0,0,0,0,0,NO
126,0,0.0,0,0,0.0,0,0,0.0,0,0,0,0,NO
42,0,0.0,0,0,0.0,0,0,0.0,0,0,0,0,NO
80,0,0.0,0,0,0.0,0,0,0.0,0,0,0,0,NO
36,0,0.0,0,0,0.0,0,0,0.0,0,0,0,0,NO
464,194,38.8,174,73,14.6,57,121,24.2,117,5,0,3,NO
47,0,0.0,0,0,0.0,0,0,0.0,0,0,0,0,NO
47,0,0.0,0,0,0.0,0,0,0.0,0,0,0,0,NO
76,0,0.0,0,0,0.0,0,0,0.0,0,0,0,0,NO
94,0,0.0,0,0,0.0,0,0,0.0,0,0,0,0,NO
388,0,0.0,0,0,0.0,0,0,0.0,0,0,0,0,NO
96,0,0.0,0,0,0.0,0,0,0.0,0,0,0,0,NO
42,0,0.0,0,0,0.0,0,0,0.0,0,0,0,0,NO
53,0,0.0,0,0,0.0,0,0,0.0,0,0,0,0,NO
55,0,0.0,0,0,0.0,0,0,0.0,0,0,0,0,NO
40,0,0.0,0,0,0.0,0,0,0.0,0,0,0,0,NO
42,0,0.0,0,0,0.0,0,0,0.0,0,0,0,0,NO
48,0,0.0,0,0,0.0,0,0,0.0,0,0,0,0,NO
41,0,0.0,0,0,0.0,0,0,0.0,0,0,0,0,NO
57,0,0.0,0,0,0.0,0,0,0.0,0,0,0,0,NO
45,0,0.0,0,0,0.0,0,0,0.0,0,0,0,0,NO
29,0,0.0,0,0,0.0,0,0,0.0,0,0,0,0,NO
154,0,0.0,0,0,0.0,0,0,0.0,0,0,0,0,NO
174,0,0.0,0,0,0.0,0,0,0.0,0,0,0,0,NO
94,0,0.0,0,0,0.0,0,0,0.0,0,0,0,0,NO
161,0,0.0,0,0,0.0,0,0,0.0,0,0,0,0,NO
53,0,0.0,0,0,0.0,0,0,0.0,0,0,0,0,NO
82,0,0.0,0,0,0.0,0,0,0.0,0,0,0,0,NO
116,0,0.0,0,0,0.0,0,0,0.0,0,0,0,0,NO
77,0,0.0,0,0,0.0,0,0,0.0,0,0,0,0,NO
78,0,0.0,0,0,0.0,0,0,0.0,0,0,0,0,NO
63,0,0.0,0,0,0.0,0,0,0.0,0,0,0,0,NO
174,0,0.0,0,0,0.0,0,0,0.0,0,0,0,0,NO
47,0,0.0,0,0,0.0,0,0,0.0,0,0,0,0,NO
172,0,0.0,0,0,0.0,0,0,0.0,0,0,0,0,NO
47,0,0.0,0,0,0.0,0,0,0.0,0,0,0,0,NO
167,0,0.0,0,0,0.0,0,0,0.0,0,0,0,0,NO
60,0,0.0,0,0,0.0,0,0,0.0,0,0,0,0,NO
58,0,0.0,0,0,0.0,0,0,0.0,0,0,0,0,NO
68,0,0.0,0,0,0.0,0,0,0.0,0,0,0,0,NO
85,0,0.0,0,0,0.0,0,0,0.0,0,0,0,0,NO
269,0,0.0,0,0,0.0,0,0,0.0,0,0,0,0,NO
112,0,0.0,0,0,0.0,0,0,0.0,0,0,0,0,NO
44,0,0.0,0,0,0.0,0,0,0.0,0,0,0,0,NO
104,0,0.0,0,0,0.0,0,0,0.0,0,0,0,0,NO
210,0,0.0,0,0,0.0,0,0,0.0,0,0,0,0,NO
54,0,0.0,0,0,0.0,0,0,0.0,0,0,0,0,NO
96,0,0.0,0,0,0.0,0,0,0.0,0,0,0,0,NO
31,0,0.0,0,0,0.0,0,0,0.0,0,0,0,0,NO
71,0,0.0,0,0,0.0,0,0,0.0,0,0,0,0,NO
55,0,0.0,0,0,0.0,0,0,0.0,0,0,0,0,NO
158,0,0.0,0,0,0.0,0,0,0.0,0,0,0,0,NO
92,0,0.0,0,0,0.0,0,0,0.0,0,0,0,0,NO
64,0,0.0,0,0,0.0,0,0,0.0,0,0,0,0,NO
58,0,0.0,0,0,0.0,0,0,0.0,0,0,0,0,NO
65,0,0.0,0,0,0.0,0,0,0.0,0,0,0,0,NO
64,0,0.0,0,0,0.0,0,0,0.0,0,0,0,0,NO
64,0,0.0,0,0,0.0,0,0,0.0,0,0,0,0,NO
56,0,0.0,0,0,0.0,0,0,0.0,0,0,0,0,NO
23,0,0.0,0,0,0.0,0,0,0.0,0,0,0,0,NO
40,0,0.0,0,0,0.0,0,0,0.0,0,0,0,0,NO
24,0,0.0,0,0,0.0,0,0,0.0,0,0,0,0,NO
26,0,0.0,0,0,0.0,0,0,0.0,0,0,0,0,NO
56,0,0.0,0,0,0.0,0,0,0.0,0,0,0,0,NO
60,0,0.0,0,0,0.0,0,0,0.0,0,0,0,0,NO
50,0,0.0,0,0,0.0,0,0,0.0,0,0,0,0,NO
58,0,0.0,0,0,0.0,0,0,0.0,0,0,0,0,NO
61,0,0.0,0,0,0.0,0,0,0.0,0,0,0,0,NO
35,0,0.0,0,0,0.0,0,0,0.0,0,0,0,0,NO
240,0,0.0,0,0,0.0,0,0,0.0,0,0,0,0,NO
52,0,0.0,0,0,0.0,0,0,0.0,0,0,0,0,NO
32,0,0.0,0,0,0.0,0,0,0.0,0,0,0,0,NO
32,0,0.0,0,0,0.0,0,0,0.0,0,0,0,0,NO
32,0,0.0,0,0,0.0,0,0,0.0,0,0,0,0,NO
32,0,0.0,0,0,0.0,0,0,0.0,0,0,0,0,NO
172,0,0.0,0,0,0.0,0,0,0.0,0,0,0,0,NO
232,0,0.0,0,0,0.0,0,0,0.0,0,0,0,0,NO
23,0,0.0,0,0,0.0,0,0,0.0,0,0,0,0,NO
24,0,0.0,0,0,0.0,0,0,0.0,0,0,0,0,NO
105,0,0.0,0,0,0.0,0,0,0.0,0,0,0,0,NO
31,0,0.0,0,0,0.0,0,0,0.0,0,0,0,0,NO
34,0,0.0,0,0,0.0,0,0,0.0,0,0,0,0,NO
29,0,0.0,0,0,0.0,0,0,0.0,0,0,0,0,NO
31,0,0.0,0,0,0.0,0,0,0.0,0,0,0,0,NO
40,0,0.0,0,0,0.0,0,0,0.0,0,0,0,0,NO
37,0,0.0,0,0,0.0,0,0,0.0,0,0,0,0,NO
29,0,0.0,0,0,0.0,0,0,0.0,0,0,0,0,NO
42,0,0.0,0,0,0.0,0,0,0.0,0,0,0,0,NO
280,0,0.0,0,0,0.0,0,0,0.0,0,0,0,0,NO
41,0,0.0,0,0,0.0,0,0,0.0,0,0,0,0,NO
139,0,0.0,0,0,0.0,0,0,0.0,0,0,0,0,NO
65,0,0.0,0,0,0.0,0,0,0.0,0,0,0,0,NO
29,0,0.0,0,0,0.0,0,0,0.0,0,0,0,0,NO
22,0,0.0,0,0,0.0,0,0,0.0,0,0,0,0,NO
25,0,0.0,0,0,0.0,0,0,0.0,0,0,0,0,NO
24,0,0.0,0,0,0.0,0,0,0.0,0,0,0,0,NO
114,0,0.0,0,0,0.0,0,0,0.0,0,0,0,0,NO
43,0,0.0,0,0,0.0,0,0,0.0,0,0,0,0,NO
48,0,0.0,0,0,0.0,0,0,0.0,0,0,0,0,NO
30,0,0.0,0,0,0.0,0,0,0.0,0,0,0,0,NO
55,0,0.0,0,0,0.0,0,0,0.0,0,0,0,0,NO
69,0,0.0,0,0,0.0,0,0,0.0,0,0,0,0,NO
38,0,0.0,0,0,0.0,0,0,0.0,0,0,0,0,NO
28,0,0.0,0,0,0.0,0,0,0.0,0,0,0,0,NO
30,0,0.0,0,0,0.0,0,0,0.0,0,0,0,0,NO
105,6,3.0,3,6,3.0,3,0,0.0,0,2,1,2,YES
112,0,0.0,0,0,0.0,0,0,0.0,0,0,0,0,NO
75,0,0.0,0,8,4.0,4,8,4.0,4,2,1,2,YES
2444,1,1.0,1,1,1.0,1,0,0.0,0,1,0,1,NO
199,0,0.0,0,0,0.0,0,0,0.0,0,0,0,0,NO
84,0,0.0,0,0,0.0,0,0,0.0,0,0,0,0,NO
22,0,0.0,0,0,0.0,0,0,0.0,0,0,0,0,NO
31,0,0.0,0,0,0.0,0,0,0.0,0,0,0,0,NO
33,0,0.0,0,0,0.0,0,0,0.0,0,0,0,0,NO
236,0,0.0,0,0,0.0,0,0,0.0,0,0,0,0,NO
406,0,0.0,0,0,0.0,0,0,0.0,0,0,0,0,NO
389,0,0.0,0,0,0.0,0,0,0.0,0,0,0,0,NO
106,0,0.0,0,0,0.0,0,0,0.0,0,0,0,0,NO
25,0,0.0,0,0,0.0,0,0,0.0,0,0,0,0,NO
52,0,0.0,0,0,0.0,0,0,0.0,0,0,0,0,NO
52,0,0.0,0,0,0.0,0,0,0.0,0,0,0,0,NO
65,0,0.0,0,0,0.0,0,0,0.0,0,0,0,0,NO
72,0,0.0,0,0,0.0,0,0,0.0,0,0,0,0,NO
39,0,0.0,0,0,0.0,0,0,0.0,0,0,0,0,NO
48,0,0.0,0,0,0.0,0,0,0.0,0,0,0,0,NO
42,0,0.0,0,0,0.0,0,0,0.0,0,0,0,0,NO
87,0,0.0,0,0,0.0,0,0,0.0,0,0,0,0,NO
55,0,0.0,0,0,0.0,0,0,0.0,0,0,0,0,NO
57,0,0.0,0,0,0.0,0,0,0.0,0,0,0,0,NO
100,0,0.0,0,0,0.0,0,0,0.0,0,0,0,0,NO
42,0,0.0,0,0,0.0,0,0,0.0,0,0,0,0,NO
179,0,0.0,0,0,0.0,0,0,0.0,0,0,0,0,NO
100,0,0.0,0,0,0.0,0,0,0.0,0,0,0,0,NO
42,0,0.0,0,0,0.0,0,0,0.0,0,0,0,0,NO
38,0,0.0,0,0,0.0,0,0,0.0,0,0,0,0,NO
61,0,0.0,0,0,0.0,0,0,0.0,0,0,0,0,NO
24,0,0.0,0,0,0.0,0,0,0.0,0,0,0,0,NO
61,0,0.0,0,0,0.0,0,0,0.0,0,0,0,0,NO
180,0,0.0,0,0,0.0,0,0,0.0,0,0,0,0,NO
38,0,0.0,0,0,0.0,0,0,0.0,0,0,0,0,NO
57,0,0.0,0,0,0.0,0,0,0.0,0,0,0,0,NO
51,0,0.0,0,0,0.0,0,0,0.0,0,0,0,0,NO
60,0,0.0,0,0,0.0,0,0,0.0,0,0,0,0,NO
48,0,0.0,0,0,0.0,0,0,0.0,0,0,0,0,NO
51,0,0.0,0,0,0.0,0,0,0.0,0,0,0,0,NO
186,0,0.0,0,0,0.0,0,0,0.0,0,0,0,0,NO
52,0,0.0,0,0,0.0,0,0,0.0,0,0,0,0,NO
53,0,0.0,0,0,0.0,0,0,0.0,0,0,0,0,NO
56,0,0.0,0,0,0.0,0,0,0.0,0,0,0,0,NO
37,0,0.0,0,0,0.0,0,0,0.0,0,0,0,0,NO
111,0,0.0,0,0,0.0,0,0,0.0,0,0,0,0,NO
63,0,0.0,0,0,0.0,0,0,0.0,0,0,0,0,NO
62,0,0.0,0,0,0.0,0,0,0.0,0,0,0,0,NO
139,0,0.0,0,0,0.0,0,0,0.0,0,0,0,0,NO
76,0,0.0,0,0,0.0,0,0,0.0,0,0,0,0,NO
60,0,0.0,0,0,0.0,0,0,0.0,0,0,0,0,NO
43,0,0.0,0,0,0.0,0,0,0.0,0,0,0,0,NO
31,0,0.0,0,0,0.0,0,0,0.0,0,0,0,0,NO
45,0,0.0,0,0,0.0,0,0,0.0,0,0,0,0,NO
85,0,0.0,0,0,0.0,0,0,0.0,0,0,0,0,NO
37,0,0.0,0,0,0.0,0,0,0.0,0,0,0,0,NO
27,0,0.0,0,0,0.0,0,0,0.0,0,0,0,0,NO
65,0,0.0,0,0,0.0,0,0,0.0,0,0,0,0,NO
86,0,0.0,0,0,0.0,0,0,0.0,0,0,0,0,NO
34,0,0.0,0,0,0.0,0,0,0.0,0,0,0,0,NO
83,0,0.0,0,0,0.0,0,0,0.0,0,0,0,0,NO
31,0,0.0,0,0,0.0,0,0,0.0,0,0,0,0,NO
32,0,0.0,0,0,0.0,0,0,0.0,0,0,0,0,NO
31,0,0.0,0,0,0.0,0,0,0.0,0,0,0,0,NO
31,0,0.0,0,0,0.0,0,0,0.0,0,0,0,0,NO
83,0,0.0,0,0,0.0,0,0,0.0,0,0,0,0,NO
209,1254,209.0,209,0,0.0,0,1254,209.0,209,6,0,4,NO
67,0,0.0,0,0,0.0,0,0,0.0,0,0,0,0,NO
72,0,0.0,0,0,0.0,0,0,0.0,0,0,0,0,NO
26,0,0.0,0,0,0.0,0,0,0.0,0,0,0,0,NO
103,62,7.75,8,920,115.0,158,890,111.25,151,8,0,4,NO
29,0,0.0,0,0,0.0,0,0,0.0,0,0,0,0,NO
36,0,0.0,0,0,0.0,0,0,0.0,0,0,0,0,NO
33,0,0.0,0,0,0.0,0,0,0.0,0,0,0,0,NO
29,0,0.0,0,0,0.0,0,0,0.0,0,0,0,0,NO
44,0,0.0,0,0,0.0,0,0,0.0,0,0,0,0,NO
29,0,0.0,0,0,0.0,0,0,0.0,0,0,0,0,NO
29,0,0.0,0,0,0.0,0,0,0.0,0,0,0,0,NO
25,0,0.0,0,0,0.0,0,0,0.0,0,0,0,0,NO
48,108,18.0,18,6,1.0,1,102,17.0,17,6,0,4,NO
56,0,0.0,0,0,0.0,0,0,0.0,0,0,0,0,NO
26,0,0.0,0,0,0.0,0,0,0.0,0,0,0,0,NO
40,0,0.0,0,0,0.0,0,0,0.0,0,0,0,0,NO
184,0,0.0,0,0,0.0,0,0,0.0,0,0,0,0,NO
32,0,0.0,0,0,0.0,0,0,0.0,0,0,0,0,NO
53,0,0.0,0,0,0.0,0,0,0.0,0,0,0,0,NO
36,0,0.0,0,0,0.0,0,0,0.0,0,0,0,0,NO
28,0,0.0,0,0,0.0,0,0,0.0,0,0,0,0,NO
22,0,0.0,0,0,0.0,0,0,0.0,0,0,0,0,NO
193,110,13.75,18,26,3.25,4,84,10.5,14,8,0,4,NO
372,0,0.0,0,0,0.0,0,0,0.0,0,0,0,0,NO
580,288,48.0,48,0,0.0,0,288,48.0,48,6,0,4,NO
337,0,0.0,0,0,0.0,0,0,0.0,0,0,0,0,NO
33,0,0.0,0,0,0.0,0,0,0.0,0,0,0,0,NO
24,0,0.0,0,0,0.0,0,0,0.0,0,0,0,0,NO
28,0,0.0,0,0,0.0,0,0,0.0,0,0,0,0,NO
25,0,0.0,0,0,0.0,0,0,0.0,0,0,0,0,NO
25,0,0.0,0,0,0.0,0,0,0.0,0,0,0,0,NO
26,0,0.0,0,0,0.0,0,0,0.0,0,0,0,0,NO
46,0,0.0,0,0,0.0,0,0,0.0,0,0,0,0,NO
64,0,0.0,0,0,0.0,0,0,0.0,0,0,0,0,NO
150,0,0.0,0,0,0.0,0,0,0.0,0,0,0,0,NO
24,0,0.0,0,0,0.0,0,0,0.0,0,0,0,0,NO
24,0,0.0,0,0,0.0,0,0,0.0,0,0,0,0,NO
211,0,0.0,0,0,0.0,0,0,0.0,0,0,0,0,NO
26,0,0.0,0,0,0.0,0,0,0.0,0,0,0,0,NO
31,0,0.0,0,0,0.0,0,0,0.0,0,0,0,0,NO
94,0,0.0,0,0,0.0,0,0,0.0,0,0,0,0,NO
61,0,0.0,0,0,0.0,0,0,0.0,0,0,0,0,NO
96,0,0.0,0,0,0.0,0,0,0.0,0,0,0,0,NO
217,0,0.0,0,0,0.0,0,0,0.0,0,0,0,0,NO
521,0,0.0,0,0,0.0,0,0,0.0,0,0,0,0,NO
56,0,0.0,0,0,0.0,0,0,0.0,0,0,0,0,NO
69,0,0.0,0,0,0.0,0,0,0.0,0,0,0,0,NO
160,0,0.0,0,0,0.0,0,0,0.0,0,0,0,0,NO
142,0,0.0,0,0,0.0,0,0,0.0,0,0,0,0,NO
149,0,0.0,0,0,0.0,0,0,0.0,0,0,0,0,NO
47,0,0.0,0,0,0.0,0,0,0.0,0,0,0,0,NO
173,0,0.0,0,0,0.0,0,0,0.0,0,0,0,0,NO
30,0,0.0,0,0,0.0,0,0,0.0,0,0,0,0,NO
857,0,0.0,0,0,0.0,0,0,0.0,0,0,0,0,NO
59,0,0.0,0,0,0.0,0,0,0.0,0,0,0,0,NO
912,0,0.0,0,0,0.0,0,0,0.0,0,0,0,0,NO
121,0,0.0,0,0,0.0,0,0,0.0,0,0,0,0,NO
183,0,0.0,0,0,0.0,0,0,0.0,0,0,0,0,NO
32,0,0.0,0,0,0.0,0,0,0.0,0,0,0,0,NO
32,0,0.0,0,0,0.0,0,0,0.0,0,0,0,0,NO
26,0,0.0,0,0,0.0,0,0,0.0,0,0,0,0,NO
174,0,0.0,0,0,0.0,0,0,0.0,0,0,0,0,NO
31,0,0.0,0,0,0.0,0,0,0.0,0,0,0,0,NO
24,0,0.0,0,0,0.0,0,0,0.0,0,0,0,0,NO
38,0,0.0,0,0,0.0,0,0,0.0,0,0,0,0,NO
119,0,0.0,0,0,0.0,0,0,0.0,0,0,0,0,NO
104,0,0.0,0,0,0.0,0,0,0.0,0,0,0,0,NO
26,0,0.0,0,0,0.0,0,0,0.0,0,0,0,0,NO
45,0,0.0,0,0,0.0,0,0,0.0,0,0,0,0,NO
23,0,0.0,0,0,0.0,0,0,0.0,0,0,0,0,NO
23,0,0.0,0,0,0.0,0,0,0.0,0,0,0,0,NO
23,0,0.0,0,0,0.0,0,0,0.0,0,0,0,0,NO
33,0,0.0,0,0,0.0,0,0,0.0,0,0,0,0,NO
47,0,0.0,0,0,0.0,0,0,0.0,0,0,0,0,NO
29,0,0.0,0,0,0.0,0,0,0.0,0,0,0,0,NO
35,0,0.0,0,0,0.0,0,0,0.0,0,0,0,0,NO
66,0,0.0,0,0,0.0,0,0,0.0,0,0,0,0,NO
22,0,0.0,0,0,0.0,0,0,0.0,0,0,0,0,NO
48,0,0.0,0,0,0.0,0,0,0.0,0,0,0,0,NO
37,0,0.0,0,0,0.0,0,0,0.0,0,0,0,0,NO
92,0,0.0,0,0,0.0,0,0,0.0,0,0,0,0,NO
31,0,0.0,0,0,0.0,0,0,0.0,0,0,0,0,NO
32,0,0.0,0,0,0.0,0,0,0.0,0,0,0,0,NO
36,0,0.0,0,0,0.0,0,0,0.0,0,0,0,0,NO
31,0,0.0,0,0,0.0,0,0,0.0,0,0,0,0,NO
46,0,0.0,0,0,0.0,0,0,0.0,0,0,0,0,NO
26,0,0.0,0,0,0.0,0,0,0.0,0,0,0,0,NO
52,0,0.0,0,0,0.0,0,0,0.0,0,0,0,0,NO
36,0,0.0,0,0,0.0,0,0,0.0,0,0,0,0,NO
65,0,0.0,0,0,0.0,0,0,0.0,0,0,0,0,NO
91,0,0.0,0,0,0.0,0,0,0.0,0,0,0,0,NO
41,0,0.0,0,0,0.0,0,0,0.0,0,0,0,0,NO
48,0,0.0,0,0,0.0,0,0,0.0,0,0,0,0,NO
38,0,0.0,0,0,0.0,0,0,0.0,0,0,0,0,NO
35,0,0.0,0,0,0.0,0,0,0.0,0,0,0,0,NO
130,0,0.0,0,0,0.0,0,0,0.0,0,0,0,0,NO
38,0,0.0,0,0,0.0,0,0,0.0,0,0,0,0,NO
37,0,0.0,0,0,0.0,0,0,0.0,0,0,0,0,NO
51,0,0.0,0,0,0.0,0,0,0.0,0,0,0,0,NO
36,0,0.0,0,0,0.0,0,0,0.0,0,0,0,0,NO
51,0,0.0,0,0,0.0,0,0,0.0,0,0,0,0,NO
76,0,0.0,0,0,0.0,0,0,0.0,0,0,0,0,NO
44,0,0.0,0,0,0.0,0,0,0.0,0,0,0,0,NO
42,0,0.0,0,0,0.0,0,0,0.0,0,0,0,0,NO
46,0,0.0,0,0,0.0,0,0,0.0,0,0,0,0,NO
42,0,0.0,0,0,0.0,0,0,0.0,0,0,0,0,NO
113,0,0.0,0,0,0.0,0,0,0.0,0,0,0,0,NO
53,0,0.0,0,0,0.0,0,0,0.0,0,0,0,0,NO
56,0,0.0,0,0,0.0,0,0,0.0,0,0,0,0,NO
61,0,0.0,0,0,0.0,0,0,0.0,0,0,0,0,NO
49,0,0.0,0,0,0.0,0,0,0.0,0,0,0,0,NO
38,0,0.0,0,0,0.0,0,0,0.0,0,0,0,0,NO
53,0,0.0,0,0,0.0,0,0,0.0,0,0,0,0,NO
43,0,0.0,0,0,0.0,0,0,0.0,0,0,0,0,NO
29,0,0.0,0,0,0.0,0,0,0.0,0,0,0,0,NO
48,0,0.0,0,0,0.0,0,0,0.0,0,0,0,0,NO
96,0,0.0,0,0,0.0,0,0,0.0,0,0,0,0,NO
95,0,0.0,0,0,0.0,0,0,0.0,0,0,0,0,NO
51,0,0.0,0,0,0.0,0,0,0.0,0,0,0,0,NO
29,0,0.0,0,0,0.0,0,0,0.0,0,0,0,0,NO
159,0,0.0,0,0,0.0,0,0,0.0,0,0,0,0,NO
41,0,0.0,0,0,0.0,0,0,0.0,0,0,0,0,NO
53,0,0.0,0,0,0.0,0,0,0.0,0,0,0,0,NO
56,0,0.0,0,0,0.0,0,0,0.0,0,0,0,0,NO
27,0,0.0,0,0,0.0,0,0,0.0,0,0,0,0,NO
95,0,0.0,0,0,0.0,0,0,0.0,0,0,0,0,NO
40,0,0.0,0,0,0.0,0,0,0.0,0,0,0,0,NO
42,0,0.0,0,0,0.0,0,0,0.0,0,0,0,0,NO
59,0,0.0,0,0,0.0,0,0,0.0,0,0,0,0,NO
55,0,0.0,0,0,0.0,0,0,0.0,0,0,0,0,NO
38,0,0.0,0,0,0.0,0,0,0.0,0,0,0,0,NO
66,0,0.0,0,0,0.0,0,0,0.0,0,0,0,0,NO
31,0,0.0,0,0,0.0,0,0,0.0,0,0,0,0,NO
50,0,0.0,0,0,0.0,0,0,0.0,0,0,0,0,NO
29,0,0.0,0,0,0.0,0,0,0.0,0,0,0,0,NO
33,0,0.0,0,0,0.0,0,0,0.0,0,0,0,0,NO
39,0,0.0,0,0,0.0,0,0,0.0,0,0,0,0,NO
217,0,0.0,0,0,0.0,0,0,0.0,0,0,0,0,NO
40,0,0.0,0,0,0.0,0,0,0.0,0,0,0,0,NO
27,0,0.0,0,0,0.0,0,0,0.0,0,0,0,0,NO
84,0,0.0,0,0,0.0,0,0,0.0,0,0,0,0,NO
62,0,0.0,0,0,0.0,0,0,0.0,0,0,0,0,NO
80,0,0.0,0,0,0.0,0,0,0.0,0,0,0,0,NO
59,0,0.0,0,0,0.0,0,0,0.0,0,0,0,0,NO
87,0,0.0,0,0,0.0,0,0,0.0,0,0,0,0,NO
93,0,0.0,0,0,0.0,0,0,0.0,0,0,0,0,NO
107,0,0.0,0,0,0.0,0,0,0.0,0,0,0,0,NO
73,0,0.0,0,0,0.0,0,0,0.0,0,0,0,0,NO
107,0,0.0,0,0,0.0,0,0,0.0,0,0,0,0,NO
76,0,0.0,0,0,0.0,0,0,0.0,0,0,0,0,NO
92,0,0.0,0,0,0.0,0,0,0.0,0,0,0,0,NO
24,0,0.0,0,0,0.0,0,0,0.0,0,0,0,0,NO
33,0,0.0,0,0,0.0,0,0,0.0,0,0,0,0,NO
31,0,0.0,0,0,0.0,0,0,0.0,0,0,0,0,NO
63,0,0.0,0,0,0.0,0,0,0.0,0,0,0,0,NO
77,0,0.0,0,0,0.0,0,0,0.0,0,0,0,0,NO
25,0,0.0,0,0,0.0,0,0,0.0,0,0,0,0,NO
26,0,0.0,0,0,0.0,0,0,0.0,0,0,0,0,NO
125,0,0.0,0,0,0.0,0,0,0.0,0,0,0,0,NO
201,0,0.0,0,0,0.0,0,0,0.0,0,0,0,0,NO
171,0,0.0,0,0,0.0,0,0,0.0,0,0,0,0,NO
204,0,0.0,0,0,0.0,0,0,0.0,0,0,0,0,NO
49,0,0.0,0,0,0.0,0,0,0.0,0,0,0,0,NO
38,0,0.0,0,0,0.0,0,0,0.0,0,0,0,0,NO
182,0,0.0,0,0,0.0,0,0,0.0,0,0,0,0,NO
94,0,0.0,0,0,0.0,0,0,0.0,0,0,0,0,NO
138,0,0.0,0,0,0.0,0,0,0.0,0,0,0,0,NO
25,0,0.0,0,0,0.0,0,0,0.0,0,0,0,0,NO
25,0,0.0,0,0,0.0,0,0,0.0,0,0,0,0,NO
36,0,0.0,0,0,0.0,0,0,0.0,0,0,0,0,NO
26,0,0.0,0,0,0.0,0,0,0.0,0,0,0,0,NO
44,0,0.0,0,0,0.0,0,0,0.0,0,0,0,0,NO
52,0,0.0,0,0,0.0,0,0,0.0,0,0,0,0,NO
50,0,0.0,0,0,0.0,0,0,0.0,0,0,0,0,NO
75,0,0.0,0,0,0.0,0,0,0.0,0,0,0,0,NO
28,0,0.0,0,0,0.0,0,0,0.0,0,0,0,0,NO
31,0,0.0,0,0,0.0,0,0,0.0,0,0,0,0,NO
41,0,0.0,0,0,0.0,0,0,0.0,0,0,0,0,NO
26,0,0.0,0,0,0.0,0,0,0.0,0,0,0,0,NO
39,0,0.0,0,0,0.0,0,0,0.0,0,0,0,0,NO
26,0,0.0,0,0,0.0,0,0,0.0,0,0,0,0,NO
30,0,0.0,0,0,0.0,0,0,0.0,0,0,0,0,NO
25,0,0.0,0,0,0.0,0,0,0.0,0,0,0,0,NO
33,0,0.0,0,0,0.0,0,0,0.0,0,0,0,0,NO
44,0,0.0,0,0,0.0,0,0,0.0,0,0,0,0,NO
23,0,0.0,0,0,0.0,0,0,0.0,0,0,0,0,NO
80,0,0.0,0,0,0.0,0,0,0.0,0,0,0,0,NO
78,0,0.0,0,0,0.0,0,0,0.0,0,0,0,0,NO
26,0,0.0,0,0,0.0,0,0,0.0,0,0,0,0,NO
84,0,0.0,0,0,0.0,0,0,0.0,0,0,0,0,NO
91,0,0.0,0,0,0.0,0,0,0.0,0,0,0,0,NO
26,0,0.0,0,0,0.0,0,0,0.0,0,0,0,0,NO
85,0,0.0,0,0,0.0,0,0,0.0,0,0,0,0,NO
67,0,0.0,0,0,0.0,0,0,0.0,0,0,0,0,NO
124,0,0.0,0,0,0.0,0,0,0.0,0,0,0,0,NO
26,0,0.0,0,0,0.0,0,0,0.0,0,0,0,0,NO
25,0,0.0,0,0,0.0,0,0,0.0,0,0,0,0,NO
76,0,0.0,0,0,0.0,0,0,0.0,0,0,0,0,NO
109,0,0.0,0,0,0.0,0,0,0.0,0,0,0,0,NO
24,0,0.0,0,0,0.0,0,0,0.0,0,0,0,0,NO
27,0,0.0,0,0,0.0,0,0,0.0,0,0,0,0,NO
47,0,0.0,0,0,0.0,0,0,0.0,0,0,0,0,NO
185,0,0.0,0,0,0.0,0,0,0.0,0,0,0,0,NO
96,0,0.0,0,0,0.0,0,0,0.0,0,0,0,0,NO
97,0,0.0,0,0,0.0,0,0,0.0,0,0,0,0,NO
23,0,0.0,0,0,0.0,0,0,0.0,0,0,0,0,NO
154,0,0.0,0,0,0.0,0,0,0.0,0,0,0,0,NO
47,0,0.0,0,0,0.0,0,0,0.0,0,0,0,0,NO
176,0,0.0,0,0,0.0,0,0,0.0,0,0,0,0,NO
36,0,0.0,0,0,0.0,0,0,0.0,0,0,0,0,NO
32,0,0.0,0,0,0.0,0,0,0.0,0,0,0,0,NO
30,0,0.0,0,0,0.0,0,0,0.0,0,0,0,0,NO
37,0,0.0,0,0,0.0,0,0,0.0,0,0,0,0,NO
33,0,0.0,0,0,0.0,0,0,0.0,0,0,0,0,NO
32,0,0.0,0,0,0.0,0,0,0.0,0,0,0,0,NO
289,0,0.0,0,0,0.0,0,0,0.0,0,0,0,0,NO
66,0,0.0,0,0,0.0,0,0,0.0,0,0,0,0,NO
439,0,0.0,0,0,0.0,0,0,0.0,0,0,0,0,NO
734,0,0.0,0,0,0.0,0,0,0.0,0,0,0,0,NO
147,0,0.0,0,0,0.0,0,0,0.0,0,0,0,0,NO
47,0,0.0,0,0,0.0,0,0,0.0,0,0,0,0,NO
171,0,0.0,0,0,0.0,0,0,0.0,0,0,0,0,NO
92,0,0.0,0,0,0.0,0,0,0.0,0,0,0,0,NO
60,0,0.0,0,0,0.0,0,0,0.0,0,0,0,0,NO
34,0,0.0,0,0,0.0,0,0,0.0,0,0,0,0,NO
361,0,0.0,0,0,0.0,0,0,0.0,0,0,0,0,NO
60,0,0.0,0,0,0.0,0,0,0.0,0,0,0,0,NO
28,0,0.0,0,0,0.0,0,0,0.0,0,0,0,0,NO
50,0,0.0,0,0,0.0,0,0,0.0,0,0,0,0,NO
35,0,0.0,0,0,0.0,0,0,0.0,0,0,0,0,NO
117,0,0.0,0,0,0.0,0,0,0.0,0,0,0,0,NO
238,0,0.0,0,0,0.0,0,0,0.0,0,0,0,0,NO
59,0,0.0,0,0,0.0,0,0,0.0,0,0,0,0,NO
72,0,0.0,0,0,0.0,0,0,0.0,0,0,0,0,NO
200,0,0.0,0,0,0.0,0,0,0.0,0,0,0,0,NO
44,10,2.0,2,20,4.0,4,10,2.0,2,5,0,4,NO
217,0,0.0,0,0,0.0,0,0,0.0,0,0,0,0,NO
42,0,0.0,0,0,0.0,0,0,0.0,0,0,0,0,NO
87,435,87.0,87,0,0.0,0,435,87.0,87,5,0,4,NO
263,15,3.0,3,25,5.0,5,10,2.0,2,5,0,4,NO
52,0,0.0,0,0,0.0,0,0,0.0,0,0,0,0,NO
40,0,0.0,0,0,0.0,0,0,0.0,0,0,0,0,NO
81,5,1.0,1,5,1.0,1,0,0.0,0,5,0,4,NO
79,5,1.0,1,0,0.0,0,5,1.0,1,5,0,4,NO
40,35,7.0,7,10,2.0,2,25,5.0,5,5,0,4,NO
48,0,0.0,0,0,0.0,0,0,0.0,0,0,0,0,NO
43,0,0.0,0,0,0.0,0,0,0.0,0,0,0,0,NO
44,0,0.0,0,0,0.0,0,0,0.0,0,0,0,0,NO
43,0,0.0,0,0,0.0,0,0,0.0,0,0,0,0,NO
42,0,0.0,0,0,0.0,0,0,0.0,0,0,0,0,NO
57,0,0.0,0,0,0.0,0,0,0.0,0,0,0,0,NO
32,0,0.0,0,0,0.0,0,0,0.0,0,0,0,0,NO
59,0,0.0,0,0,0.0,0,0,0.0,0,0,0,0,NO
60,0,0.0,0,0,0.0,0,0,0.0,0,0,0,0,NO
60,0,0.0,0,0,0.0,0,0,0.0,0,0,0,0,NO
60,0,0.0,0,0,0.0,0,0,0.0,0,0,0,0,NO
45,0,0.0,0,0,0.0,0,0,0.0,0,0,0,0,NO
48,0,0.0,0,0,0.0,0,0,0.0,0,0,0,0,NO
117,0,0.0,0,0,0.0,0,0,0.0,0,0,0,0,NO
214,0,0.0,0,0,0.0,0,0,0.0,0,0,0,0,NO
94,0,0.0,0,0,0.0,0,0,0.0,0,0,0,0,NO
68,0,0.0,0,0,0.0,0,0,0.0,0,0,0,0,NO
356,0,0.0,0,0,0.0,0,0,0.0,0,0,0,0,NO
37,0,0.0,0,0,0.0,0,0,0.0,0,0,0,0,NO
63,0,0.0,0,0,0.0,0,0,0.0,0,0,0,0,NO
24,0,0.0,0,0,0.0,0,0,0.0,0,0,0,0,NO
37,0,0.0,0,0,0.0,0,0,0.0,0,0,0,0,NO
267,0,0.0,0,0,0.0,0,0,0.0,0,0,0,0,NO
54,0,0.0,0,0,0.0,0,0,0.0,0,0,0,0,NO
53,0,0.0,0,0,0.0,0,0,0.0,0,0,0,0,NO
44,0,0.0,0,0,0.0,0,0,0.0,0,0,0,0,NO
35,0,0.0,0,0,0.0,0,0,0.0,0,0,0,0,NO
569,0,0.0,0,0,0.0,0,0,0.0,0,0,0,0,NO
33,0,0.0,0,0,0.0,0,0,0.0,0,0,0,0,NO
66,0,0.0,0,0,0.0,0,0,0.0,0,0,0,0,NO
27,0,0.0,0,0,0.0,0,0,0.0,0,0,0,0,NO
556,74,8.222222222222221,16,24,2.6666666666666665,8,50,5.555555555555555,12,9,1,5,YES
67,0,0.0,0,0,0.0,0,0,0.0,0,0,0,0,NO
27,0,0.0,0,0,0.0,0,0,0.0,0,0,0,0,NO
177,0,0.0,0,0,0.0,0,0,0.0,0,0,0,0,NO
59,0,0.0,0,0,0.0,0,0,0.0,0,0,0,0,NO
68,0,0.0,0,0,0.0,0,0,0.0,0,0,0,0,NO
156,0,0.0,0,0,0.0,0,0,0.0,0,0,0,0,NO
277,0,0.0,0,0,0.0,0,0,0.0,0,0,0,0,NO
252,0,0.0,0,0,0.0,0,0,0.0,0,0,0,0,NO
43,0,0.0,0,0,0.0,0,0,0.0,0,0,0,0,NO
43,0,0.0,0,0,0.0,0,0,0.0,0,0,0,0,NO
38,0,0.0,0,0,0.0,0,0,0.0,0,0,0,0,NO
135,0,0.0,0,0,0.0,0,0,0.0,0,0,0,0,NO
41,0,0.0,0,0,0.0,0,0,0.0,0,0,0,0,NO
62,0,0.0,0,0,0.0,0,0,0.0,0,0,0,0,NO
128,0,0.0,0,0,0.0,0,0,0.0,0,0,0,0,NO
47,0,0.0,0,0,0.0,0,0,0.0,0,0,0,0,NO
121,0,0.0,0,0,0.0,0,0,0.0,0,0,0,0,NO
210,0,0.0,0,0,0.0,0,0,0.0,0,0,0,0,NO
505,0,0.0,0,0,0.0,0,0,0.0,0,0,0,0,NO
76,0,0.0,0,0,0.0,0,0,0.0,0,0,0,0,NO
43,0,0.0,0,0,0.0,0,0,0.0,0,0,0,0,NO
44,0,0.0,0,0,0.0,0,0,0.0,0,0,0,0,NO
66,0,0.0,0,0,0.0,0,0,0.0,0,0,0,0,NO
142,0,0.0,0,0,0.0,0,0,0.0,0,0,0,0,NO
125,0,0.0,0,0,0.0,0,0,0.0,0,0,0,0,NO
132,0,0.0,0,0,0.0,0,0,0.0,0,0,0,0,NO
64,0,0.0,0,0,0.0,0,0,0.0,0,0,0,0,NO
2357,0,0.0,0,0,0.0,0,0,0.0,0,0,0,0,NO
131,0,0.0,0,0,0.0,0,0,0.0,0,0,0,0,NO
188,2,2.0,2,1,1.0,1,1,1.0,1,1,0,1,NO
51,0,0.0,0,0,0.0,0,0,0.0,0,0,0,0,NO
26,0,0.0,0,0,0.0,0,0,0.0,0,0,0,0,NO
79,0,0.0,0,0,0.0,0,0,0.0,0,0,0,0,NO
375,0,0.0,0,0,0.0,0,0,0.0,0,0,0,0,NO
53,0,0.0,0,0,0.0,0,0,0.0,0,0,0,0,NO
84,0,0.0,0,0,0.0,0,0,0.0,0,0,0,0,NO
700,0,0.0,0,0,0.0,0,0,0.0,0,0,0,0,NO
217,0,0.0,0,0,0.0,0,0,0.0,0,0,0,0,NO
175,0,0.0,0,0,0.0,0,0,0.0,0,0,0,0,NO
75,0,0.0,0,0,0.0,0,0,0.0,0,0,0,0,NO
76,0,0.0,0,0,0.0,0,0,0.0,0,0,0,0,NO
49,0,0.0,0,0,0.0,0,0,0.0,0,0,0,0,NO
51,0,0.0,0,0,0.0,0,0,0.0,0,0,0,0,NO
74,0,0.0,0,0,0.0,0,0,0.0,0,0,0,0,NO
71,0,0.0,0,0,0.0,0,0,0.0,0,0,0,0,NO
132,0,0.0,0,0,0.0,0,0,0.0,0,0,0,0,NO
31,0,0.0,0,0,0.0,0,0,0.0,0,0,0,0,NO
49,0,0.0,0,0,0.0,0,0,0.0,0,0,0,0,NO
26,0,0.0,0,0,0.0,0,0,0.0,0,0,0,0,NO
82,0,0.0,0,0,0.0,0,0,0.0,0,0,0,0,NO
38,0,0.0,0,0,0.0,0,0,0.0,0,0,0,0,NO
121,0,0.0,0,0,0.0,0,0,0.0,0,0,0,0,NO
65,0,0.0,0,0,0.0,0,0,0.0,0,0,0,0,NO
91,0,0.0,0,0,0.0,0,0,0.0,0,0,0,0,NO
77,0,0.0,0,0,0.0,0,0,0.0,0,0,0,0,NO
125,0,0.0,0,0,0.0,0,0,0.0,0,0,0,0,NO
48,0,0.0,0,0,0.0,0,0,0.0,0,0,0,0,NO
42,0,0.0,0,0,0.0,0,0,0.0,0,0,0,0,NO
289,0,0.0,0,0,0.0,0,0,0.0,0,0,0,0,NO
121,0,0.0,0,0,0.0,0,0,0.0,0,0,0,0,NO
43,0,0.0,0,0,0.0,0,0,0.0,0,0,0,0,NO
41,0,0.0,0,0,0.0,0,0,0.0,0,0,0,0,NO
422,0,0.0,0,0,0.0,0,0,0.0,0,0,0,0,NO
75,0,0.0,0,0,0.0,0,0,0.0,0,0,0,0,NO
136,0,0.0,0,0,0.0,0,0,0.0,0,0,0,0,NO
242,0,0.0,0,0,0.0,0,0,0.0,0,0,0,0,NO
130,0,0.0,0,0,0.0,0,0,0.0,0,0,0,0,NO
764,0,0.0,0,0,0.0,0,0,0.0,0,0,0,0,NO
456,0,0.0,0,0,0.0,0,0,0.0,0,0,0,0,NO
137,0,0.0,0,0,0.0,0,0,0.0,0,0,0,0,NO
179,0,0.0,0,0,0.0,0,0,0.0,0,0,0,0,NO
115,0,0.0,0,0,0.0,0,0,0.0,0,0,0,0,NO
41,0,0.0,0,0,0.0,0,0,0.0,0,0,0,0,NO
54,0,0.0,0,0,0.0,0,0,0.0,0,0,0,0,NO
81,0,0.0,0,0,0.0,0,0,0.0,0,0,0,0,NO
66,0,0.0,0,0,0.0,0,0,0.0,0,0,0,0,NO
85,0,0.0,0,0,0.0,0,0,0.0,0,0,0,0,NO
74,0,0.0,0,0,0.0,0,0,0.0,0,0,0,0,NO
672,0,0.0,0,0,0.0,0,0,0.0,0,0,0,0,NO
86,0,0.0,0,0,0.0,0,0,0.0,0,0,0,0,NO
83,0,0.0,0,0,0.0,0,0,0.0,0,0,0,0,NO
94,0,0.0,0,0,0.0,0,0,0.0,0,0,0,0,NO
53,0,0.0,0,0,0.0,0,0,0.0,0,0,0,0,NO
2173,245,49.0,61,783,156.6,783,1018,203.6,778,5,0,3,NO
111,0,0.0,0,0,0.0,0,0,0.0,0,0,0,0,NO
329,19,19.0,19,49,49.0,49,30,30.0,30,1,0,1,NO
82,0,0.0,0,0,0.0,0,0,0.0,0,0,0,0,NO
71,0,0.0,0,0,0.0,0,0,0.0,0,0,0,0,NO
115,0,0.0,0,0,0.0,0,0,0.0,0,0,0,0,NO
60,0,0.0,0,0,0.0,0,0,0.0,0,0,0,0,NO
262,0,0.0,0,0,0.0,0,0,0.0,0,0,0,0,NO
72,0,0.0,0,0,0.0,0,0,0.0,0,0,0,0,NO
178,0,0.0,0,0,0.0,0,0,0.0,0,0,0,0,NO
131,0,0.0,0,0,0.0,0,0,0.0,0,0,0,0,NO
118,0,0.0,0,0,0.0,0,0,0.0,0,0,0,0,NO
142,0,0.0,0,0,0.0,0,0,0.0,0,0,0,0,NO
76,0,0.0,0,0,0.0,0,0,0.0,0,0,0,0,NO
105,0,0.0,0,0,0.0,0,0,0.0,0,0,0,0,NO
110,0,0.0,0,0,0.0,0,0,0.0,0,0,0,0,NO
187,0,0.0,0,0,0.0,0,0,0.0,0,0,0,0,NO
40,0,0.0,0,0,0.0,0,0,0.0,0,0,0,0,NO
85,0,0.0,0,0,0.0,0,0,0.0,0,0,0,0,NO
100,0,0.0,0,0,0.0,0,0,0.0,0,0,0,0,NO
94,0,0.0,0,0,0.0,0,0,0.0,0,0,0,0,NO
112,0,0.0,0,0,0.0,0,0,0.0,0,0,0,0,NO
219,0,0.0,0,0,0.0,0,0,0.0,0,0,0,0,NO
50,0,0.0,0,0,0.0,0,0,0.0,0,0,0,0,NO
38,0,0.0,0,0,0.0,0,0,0.0,0,0,0,0,NO
38,0,0.0,0,0,0.0,0,0,0.0,0,0,0,0,NO
95,0,0.0,0,0,0.0,0,0,0.0,0,0,0,0,NO
118,0,0.0,0,0,0.0,0,0,0.0,0,0,0,0,NO
513,0,0.0,0,0,0.0,0,0,0.0,0,0,0,0,NO
391,0,0.0,0,0,0.0,0,0,0.0,0,0,0,0,NO
41,0,0.0,0,0,0.0,0,0,0.0,0,0,0,0,NO
69,0,0.0,0,0,0.0,0,0,0.0,0,0,0,0,NO
41,0,0.0,0,0,0.0,0,0,0.0,0,0,0,0,NO
37,0,0.0,0,0,0.0,0,0,0.0,0,0,0,0,NO
40,0,0.0,0,0,0.0,0,0,0.0,0,0,0,0,NO
97,0,0.0,0,0,0.0,0,0,0.0,0,0,0,0,NO
71,0,0.0,0,0,0.0,0,0,0.0,0,0,0,0,NO
46,0,0.0,0,0,0.0,0,0,0.0,0,0,0,0,NO
