@relation storm_trainingSet2.arff

@attribute SIZE numeric
@attribute LOC_ADDED numeric
@attribute AVG_LOC_ADDED numeric
@attribute MAX_LOC_ADDED numeric
@attribute LOC_REMOVED numeric
@attribute AVG_LOC_REMOVED numeric
@attribute MAX_LOC_REMOVED numeric
@attribute CHURN numeric
@attribute AVG_CHURN numeric
@attribute MAX_CHURN numeric
@attribute NUMBER_OF_REVISIONS numeric
@attribute NUMBER_OF_DEFECT_FIXES numeric
@attribute NUMBER_OF_AUTHORS numeric
@attribute IS_BUGGY {'YES','NO'}

@data
958,3504,100.11428571428571,799,829,23.685714285714287,122,2819,80.54285714285714,799,35,0,9,YES
89,108,21.6,82,12,2.4,6,96,19.2,82,5,0,3,YES
18,54,18.0,18,0,0.0,0,54,18.0,18,3,0,2,NO
30,90,30.0,30,0,0.0,0,90,30.0,30,3,0,2,NO
10,30,10.0,10,0,0.0,0,30,10.0,10,3,0,2,NO
152,456,152.0,152,0,0.0,0,456,152.0,152,3,0,2,NO
102,306,102.0,102,0,0.0,0,306,102.0,102,3,0,2,NO
136,408,136.0,136,0,0.0,0,408,136.0,136,3,0,2,NO
34,104,20.8,34,2,0.4,1,102,20.4,34,5,0,3,NO
34,104,20.8,34,2,0.4,1,102,20.4,34,5,0,3,NO
91,273,91.0,91,0,0.0,0,273,91.0,91,3,0,2,NO
29,87,29.0,29,0,0.0,0,87,29.0,29,3,0,2,NO
36,108,36.0,36,0,0.0,0,108,36.0,36,3,0,2,NO
419,1257,419.0,419,0,0.0,0,1257,419.0,419,3,0,2,NO
365,1095,365.0,365,0,0.0,0,1095,365.0,365,3,0,2,NO
13,39,13.0,13,0,0.0,0,39,13.0,13,3,0,2,NO
5,15,5.0,5,0,0.0,0,15,5.0,5,3,0,2,NO
74,222,74.0,74,0,0.0,0,222,74.0,74,3,0,2,NO
152,456,152.0,152,0,0.0,0,456,152.0,152,3,0,2,NO
58,174,58.0,58,0,0.0,0,174,58.0,58,3,0,2,NO
76,228,76.0,76,0,0.0,0,228,76.0,76,3,0,2,NO
32,96,32.0,32,0,0.0,0,96,32.0,32,3,0,2,NO
366,1098,366.0,366,0,0.0,0,1098,366.0,366,3,0,2,NO
42,126,42.0,42,0,0.0,0,126,42.0,42,3,0,2,NO
78,234,78.0,78,0,0.0,0,234,78.0,78,3,0,2,NO
327,984,328.0,328,0,0.0,0,984,328.0,328,3,0,2,NO
426,1281,427.0,427,0,0.0,0,1281,427.0,427,3,0,2,NO
1110,3333,1111.0,1111,0,0.0,0,3333,1111.0,1111,3,0,2,NO
597,1794,598.0,598,0,0.0,0,1794,598.0,598,3,0,2,NO
706,2121,707.0,707,0,0.0,0,2121,707.0,707,3,0,2,NO
385,1155,385.0,385,0,0.0,0,1155,385.0,385,3,0,2,NO
327,984,328.0,328,0,0.0,0,984,328.0,328,3,0,2,NO
424,1275,425.0,425,0,0.0,0,1275,425.0,425,3,0,2,NO
964,2892,964.0,964,0,0.0,0,2892,964.0,964,3,0,2,NO
2015,6045,2015.0,2015,0,0.0,0,6045,2015.0,2015,3,0,2,NO
424,1275,425.0,425,0,0.0,0,1275,425.0,425,3,0,2,NO
419,1260,420.0,420,0,0.0,0,1260,420.0,420,3,0,2,NO
318,954,318.0,318,0,0.0,0,954,318.0,318,3,0,2,NO
678,2037,679.0,679,0,0.0,0,2037,679.0,679,3,0,2,NO
807,2424,808.0,808,0,0.0,0,2424,808.0,808,3,0,2,NO
424,1275,425.0,425,0,0.0,0,1275,425.0,425,3,0,2,NO
662,1986,662.0,662,0,0.0,0,1986,662.0,662,3,0,2,NO
327,984,328.0,328,0,0.0,0,984,328.0,328,3,0,2,NO
462,1389,463.0,463,0,0.0,0,1389,463.0,463,3,0,2,NO
532,1596,532.0,532,0,0.0,0,1596,532.0,532,3,0,2,NO
319,960,320.0,320,0,0.0,0,960,320.0,320,3,0,2,NO
13491,40473,13491.0,13491,0,0.0,0,40473,13491.0,13491,3,0,2,NO
327,984,328.0,328,0,0.0,0,984,328.0,328,3,0,2,NO
224,675,225.0,225,0,0.0,0,675,225.0,225,3,0,2,NO
548,1647,549.0,549,0,0.0,0,1647,549.0,549,3,0,2,NO
416,1251,417.0,417,0,0.0,0,1251,417.0,417,3,0,2,NO
426,1281,427.0,427,0,0.0,0,1281,427.0,427,3,0,2,NO
755,2268,756.0,756,0,0.0,0,2268,756.0,756,3,0,2,NO
426,1281,427.0,427,0,0.0,0,1281,427.0,427,3,0,2,NO
659,1980,660.0,660,0,0.0,0,1980,660.0,660,3,0,2,NO
461,1386,462.0,462,0,0.0,0,1386,462.0,462,3,0,2,NO
339,1020,340.0,340,0,0.0,0,1020,340.0,340,3,0,2,NO
705,2118,706.0,706,0,0.0,0,2118,706.0,706,3,0,2,NO
917,2754,918.0,918,0,0.0,0,2754,918.0,918,3,0,2,NO
44,132,44.0,44,0,0.0,0,132,44.0,44,3,0,2,NO
894,2685,895.0,895,0,0.0,0,2685,895.0,895,3,0,2,NO
26,78,26.0,26,0,0.0,0,78,26.0,26,3,0,2,NO
44,132,44.0,44,0,0.0,0,132,44.0,44,3,0,2,NO
21,63,21.0,21,0,0.0,0,63,21.0,21,3,0,2,NO
15,45,15.0,15,0,0.0,0,45,15.0,15,3,0,2,NO
15,45,15.0,15,0,0.0,0,45,15.0,15,3,0,2,NO
15,45,15.0,15,0,0.0,0,45,15.0,15,3,0,2,NO
18,54,18.0,18,0,0.0,0,54,18.0,18,3,0,2,NO
13,39,13.0,13,0,0.0,0,39,13.0,13,3,0,2,NO
13,39,13.0,13,0,0.0,0,39,13.0,13,3,0,2,NO
21,63,21.0,21,0,0.0,0,63,21.0,21,3,0,2,NO
42,126,42.0,42,0,0.0,0,126,42.0,42,3,0,2,NO
36,166,23.714285714285715,36,58,8.285714285714286,25,192,27.428571428571427,36,7,0,3,NO
40,120,40.0,40,0,0.0,0,120,40.0,40,3,0,2,NO
55,110,55.0,55,0,0.0,0,110,55.0,55,2,0,2,NO
47,141,47.0,47,0,0.0,0,141,47.0,47,3,0,2,NO
138,459,45.9,139,45,4.5,14,420,42.0,139,10,0,5,NO
17,51,17.0,17,0,0.0,0,51,17.0,17,3,0,2,NO
21,63,21.0,21,0,0.0,0,63,21.0,21,3,0,2,NO
24,72,24.0,24,0,0.0,0,72,24.0,24,3,0,2,NO
6,18,6.0,6,0,0.0,0,18,6.0,6,3,0,2,NO
5,15,5.0,5,0,0.0,0,15,5.0,5,3,0,2,NO
43,129,43.0,43,0,0.0,0,129,43.0,43,3,0,2,NO
7,21,7.0,7,0,0.0,0,21,7.0,7,3,0,2,NO
5,10,5.0,5,0,0.0,0,10,5.0,5,2,0,2,NO
38,114,38.0,38,0,0.0,0,114,38.0,38,3,0,2,NO
28,84,28.0,28,0,0.0,0,84,28.0,28,3,0,2,NO
33,99,33.0,33,0,0.0,0,99,33.0,33,3,0,2,NO
21,63,21.0,21,0,0.0,0,63,21.0,21,3,0,2,NO
14,28,14.0,14,0,0.0,0,28,14.0,14,2,0,2,NO
14,42,6.0,11,3,0.42857142857142855,1,39,5.571428571428571,11,7,0,3,NO
11,35,4.375,10,3,0.375,1,32,4.0,10,8,0,3,NO
8,24,8.0,8,0,0.0,0,24,8.0,8,3,0,2,NO
8,24,8.0,8,0,0.0,0,24,8.0,8,3,0,2,NO
16,48,16.0,16,0,0.0,0,48,16.0,16,3,0,2,NO
418,1254,418.0,418,0,0.0,0,1254,418.0,418,3,0,2,NO
37,111,37.0,37,0,0.0,0,111,37.0,37,3,0,2,NO
22,66,22.0,22,0,0.0,0,66,22.0,22,3,0,2,NO
23,69,23.0,23,0,0.0,0,69,23.0,23,3,0,2,NO
28,84,28.0,28,0,0.0,0,84,28.0,28,3,0,2,NO
41,123,41.0,41,0,0.0,0,123,41.0,41,3,0,2,NO
93,279,93.0,93,0,0.0,0,279,93.0,93,3,0,2,NO
72,216,72.0,72,0,0.0,0,216,72.0,72,3,0,2,NO
40,120,40.0,40,0,0.0,0,120,40.0,40,3,0,2,NO
72,216,72.0,72,0,0.0,0,216,72.0,72,3,0,2,NO
35,105,35.0,35,0,0.0,0,105,35.0,35,3,0,2,NO
80,243,81.0,81,0,0.0,0,243,81.0,81,3,0,2,NO
30,90,30.0,30,0,0.0,0,90,30.0,30,3,0,2,NO
38,114,38.0,38,0,0.0,0,114,38.0,38,3,0,2,NO
91,273,91.0,91,0,0.0,0,273,91.0,91,3,0,2,NO
143,429,143.0,143,0,0.0,0,429,143.0,143,3,0,2,NO
107,321,107.0,107,0,0.0,0,321,107.0,107,3,0,2,NO
62,186,62.0,62,0,0.0,0,186,62.0,62,3,0,2,NO
62,186,62.0,62,0,0.0,0,186,62.0,62,3,0,2,NO
40,120,40.0,40,0,0.0,0,120,40.0,40,3,0,2,NO
40,120,40.0,40,0,0.0,0,120,40.0,40,3,0,2,NO
93,279,93.0,93,0,0.0,0,279,93.0,93,3,0,2,NO
52,156,52.0,52,0,0.0,0,156,52.0,52,3,0,2,NO
97,291,97.0,97,0,0.0,0,291,97.0,97,3,0,2,NO
72,216,72.0,72,0,0.0,0,216,72.0,72,3,0,2,NO
47,141,47.0,47,0,0.0,0,141,47.0,47,3,0,2,NO
6,18,6.0,6,0,0.0,0,18,6.0,6,3,0,2,NO
23,69,23.0,23,0,0.0,0,69,23.0,23,3,0,2,NO
8,24,8.0,8,0,0.0,0,24,8.0,8,3,0,2,NO
9,27,9.0,9,0,0.0,0,27,9.0,9,3,0,2,NO
42,126,42.0,42,0,0.0,0,126,42.0,42,3,0,2,NO
43,129,43.0,43,0,0.0,0,129,43.0,43,3,0,2,NO
34,102,34.0,34,0,0.0,0,102,34.0,34,3,0,2,NO
41,123,41.0,41,0,0.0,0,123,41.0,41,3,0,2,NO
44,132,44.0,44,0,0.0,0,132,44.0,44,3,0,2,NO
207,621,207.0,207,0,0.0,0,621,207.0,207,3,0,2,NO
15,45,15.0,15,0,0.0,0,45,15.0,15,3,0,2,NO
15,45,15.0,15,0,0.0,0,45,15.0,15,3,0,2,NO
15,45,15.0,15,0,0.0,0,45,15.0,15,3,0,2,NO
15,45,15.0,15,0,0.0,0,45,15.0,15,3,0,2,NO
6,18,6.0,6,0,0.0,0,18,6.0,6,3,0,2,NO
7,21,7.0,7,0,0.0,0,21,7.0,7,3,0,2,NO
88,264,88.0,88,0,0.0,0,264,88.0,88,3,0,2,NO
12,39,13.0,13,0,0.0,0,39,13.0,13,3,0,2,NO
17,51,17.0,17,0,0.0,0,51,17.0,17,3,0,2,NO
11,33,11.0,11,0,0.0,0,33,11.0,11,3,0,2,NO
14,42,14.0,14,0,0.0,0,42,14.0,14,3,0,2,NO
21,63,21.0,21,0,0.0,0,63,21.0,21,3,0,2,NO
15,45,15.0,15,0,0.0,0,45,15.0,15,3,0,2,NO
11,33,11.0,11,0,0.0,0,33,11.0,11,3,0,2,NO
24,72,24.0,24,0,0.0,0,72,24.0,24,3,0,2,NO
120,508,56.44444444444444,120,43,4.777777777777778,19,497,55.22222222222222,120,9,0,3,NO
24,72,24.0,24,0,0.0,0,72,24.0,24,3,0,2,NO
117,351,117.0,117,0,0.0,0,351,117.0,117,3,0,2,NO
12,36,12.0,12,0,0.0,0,36,12.0,12,3,0,2,NO
5,15,5.0,5,0,0.0,0,15,5.0,5,3,0,2,NO
8,24,8.0,8,0,0.0,0,24,8.0,8,3,0,2,NO
7,21,7.0,7,0,0.0,0,21,7.0,7,3,0,2,NO
11,33,11.0,11,0,0.0,0,33,11.0,11,3,0,2,NO
13,39,13.0,13,0,0.0,0,39,13.0,13,3,0,2,NO
181,543,181.0,181,0,0.0,0,543,181.0,181,3,0,2,NO
67,201,67.0,67,0,0.0,0,201,67.0,67,3,0,2,NO
5,15,5.0,5,0,0.0,0,15,5.0,5,3,0,2,NO
14,42,14.0,14,0,0.0,0,42,14.0,14,3,0,2,NO
15,45,15.0,15,0,0.0,0,45,15.0,15,3,0,2,NO
208,624,208.0,208,0,0.0,0,624,208.0,208,3,0,2,NO
228,967,74.38461538461539,223,80,6.153846153846154,34,907,69.76923076923077,223,13,0,4,NO
249,747,249.0,249,0,0.0,0,747,249.0,249,3,0,2,NO
89,267,89.0,89,0,0.0,0,267,89.0,89,3,0,2,NO
8,24,8.0,8,0,0.0,0,24,8.0,8,3,0,2,NO
35,105,35.0,35,0,0.0,0,105,35.0,35,3,0,2,NO
35,105,35.0,35,0,0.0,0,105,35.0,35,3,0,2,NO
55,165,55.0,55,0,0.0,0,165,55.0,55,3,0,2,NO
22,66,22.0,22,0,0.0,0,66,22.0,22,3,0,2,NO
31,93,31.0,31,0,0.0,0,93,31.0,31,3,0,2,NO
25,75,25.0,25,0,0.0,0,75,25.0,25,3,0,2,NO
50,150,50.0,50,0,0.0,0,150,50.0,50,3,0,2,NO
38,114,38.0,38,0,0.0,0,114,38.0,38,3,0,2,NO
40,120,40.0,40,0,0.0,0,120,40.0,40,3,0,2,NO
83,249,83.0,83,0,0.0,0,249,83.0,83,3,0,2,NO
25,75,25.0,25,0,0.0,0,75,25.0,25,3,0,2,NO
162,472,94.4,142,6,1.2,3,466,93.2,142,5,0,3,NO
25,75,25.0,25,0,0.0,0,75,25.0,25,3,0,2,NO
44,132,44.0,44,0,0.0,0,132,44.0,44,3,0,2,NO
7,21,7.0,7,0,0.0,0,21,7.0,7,3,0,2,NO
44,132,44.0,44,0,0.0,0,132,44.0,44,3,0,2,NO
164,492,164.0,164,0,0.0,0,492,164.0,164,3,0,2,NO
21,63,21.0,21,0,0.0,0,63,21.0,21,3,0,2,NO
40,120,40.0,40,0,0.0,0,120,40.0,40,3,0,2,NO
34,102,34.0,34,0,0.0,0,102,34.0,34,3,0,2,NO
43,129,43.0,43,0,0.0,0,129,43.0,43,3,0,2,NO
33,99,33.0,33,0,0.0,0,99,33.0,33,3,0,2,NO
34,102,34.0,34,0,0.0,0,102,34.0,34,3,0,2,NO
169,507,169.0,169,0,0.0,0,507,169.0,169,3,0,2,NO
35,105,35.0,35,0,0.0,0,105,35.0,35,3,0,2,NO
88,264,88.0,88,0,0.0,0,264,88.0,88,3,0,2,NO
46,138,46.0,46,0,0.0,0,138,46.0,46,3,0,2,NO
45,135,45.0,45,0,0.0,0,135,45.0,45,3,0,2,NO
43,129,43.0,43,0,0.0,0,129,43.0,43,3,0,2,NO
24,72,24.0,24,0,0.0,0,72,24.0,24,3,0,2,NO
14,42,14.0,14,0,0.0,0,42,14.0,14,3,0,2,NO
28,84,28.0,28,0,0.0,0,84,28.0,28,3,0,2,NO
68,204,68.0,68,0,0.0,0,204,68.0,68,3,0,2,NO
20,60,20.0,20,0,0.0,0,60,20.0,20,3,0,2,NO
44,132,44.0,44,0,0.0,0,132,44.0,44,3,0,2,NO
69,207,69.0,69,0,0.0,0,207,69.0,69,3,0,2,NO
17,51,17.0,17,0,0.0,0,51,17.0,17,3,0,2,NO
66,198,66.0,66,0,0.0,0,198,66.0,66,3,0,2,NO
37,111,37.0,37,0,0.0,0,111,37.0,37,3,0,2,NO
50,150,50.0,50,0,0.0,0,150,50.0,50,3,0,2,NO
45,135,45.0,45,0,0.0,0,135,45.0,45,3,0,2,NO
5,15,5.0,5,0,0.0,0,15,5.0,5,3,0,2,NO
12,36,12.0,12,0,0.0,0,36,12.0,12,3,0,2,NO
19,57,19.0,19,0,0.0,0,57,19.0,19,3,0,2,NO
16,48,16.0,16,0,0.0,0,48,16.0,16,3,0,2,NO
9,27,9.0,9,0,0.0,0,27,9.0,9,3,0,2,NO
27,81,27.0,27,0,0.0,0,81,27.0,27,3,0,2,NO
12,36,12.0,12,0,0.0,0,36,12.0,12,3,0,2,NO
12,36,12.0,12,0,0.0,0,36,12.0,12,3,0,2,NO
8,24,8.0,8,0,0.0,0,24,8.0,8,3,0,2,NO
36,108,36.0,36,0,0.0,0,108,36.0,36,3,0,2,NO
15,45,15.0,15,0,0.0,0,45,15.0,15,3,0,2,NO
36,108,36.0,36,0,0.0,0,108,36.0,36,3,0,2,NO
19,57,19.0,19,0,0.0,0,57,19.0,19,3,0,2,NO
5,15,5.0,5,0,0.0,0,15,5.0,5,3,0,2,NO
342,1026,342.0,342,0,0.0,0,1026,342.0,342,3,0,2,NO
16,48,16.0,16,0,0.0,0,48,16.0,16,3,0,2,NO
8,24,8.0,8,0,0.0,0,24,8.0,8,3,0,2,NO
11,33,11.0,11,0,0.0,0,33,11.0,11,3,0,2,NO
8,24,8.0,8,0,0.0,0,24,8.0,8,3,0,2,NO
8,24,8.0,8,0,0.0,0,24,8.0,8,3,0,2,NO
9,27,9.0,9,0,0.0,0,27,9.0,9,3,0,2,NO
33,99,33.0,33,0,0.0,0,99,33.0,33,3,0,2,NO
7,21,7.0,7,0,0.0,0,21,7.0,7,3,0,2,NO
8,24,8.0,8,0,0.0,0,24,8.0,8,3,0,2,NO
9,27,9.0,9,0,0.0,0,27,9.0,9,3,0,2,NO
14,42,14.0,14,0,0.0,0,42,14.0,14,3,0,2,NO
77,231,77.0,77,0,0.0,0,231,77.0,77,3,0,2,NO
44,132,44.0,44,0,0.0,0,132,44.0,44,3,0,2,NO
79,237,79.0,79,0,0.0,0,237,79.0,79,3,0,2,NO
200,600,200.0,200,0,0.0,0,600,200.0,200,3,0,2,NO
493,1479,493.0,493,0,0.0,0,1479,493.0,493,3,0,2,NO
39,117,39.0,39,0,0.0,0,117,39.0,39,3,0,2,NO
52,156,52.0,52,0,0.0,0,156,52.0,52,3,0,2,NO
142,426,142.0,142,0,0.0,0,426,142.0,142,3,0,2,NO
125,375,125.0,125,0,0.0,0,375,125.0,125,3,0,2,NO
132,396,132.0,132,0,0.0,0,396,132.0,132,3,0,2,NO
122,366,122.0,122,0,0.0,0,366,122.0,122,3,0,2,NO
83,249,83.0,83,0,0.0,0,249,83.0,83,3,0,2,NO
81,243,81.0,81,0,0.0,0,243,81.0,81,3,0,2,NO
154,462,154.0,154,0,0.0,0,462,154.0,154,3,0,2,NO
334,1002,334.0,334,0,0.0,0,1002,334.0,334,3,0,2,NO
20,60,20.0,20,0,0.0,0,60,20.0,20,3,0,2,NO
37,111,37.0,37,0,0.0,0,111,37.0,37,3,0,2,NO
27,81,27.0,27,0,0.0,0,81,27.0,27,3,0,2,NO
18,54,18.0,18,0,0.0,0,54,18.0,18,3,0,2,NO
7,21,7.0,7,0,0.0,0,21,7.0,7,3,0,2,NO
67,201,67.0,67,0,0.0,0,201,67.0,67,3,0,2,NO
165,475,95.0,143,2,0.4,1,473,94.6,143,5,0,3,NO
160,480,160.0,160,0,0.0,0,480,160.0,160,3,0,2,NO
42,126,42.0,42,0,0.0,0,126,42.0,42,3,0,2,NO
51,153,51.0,51,0,0.0,0,153,51.0,51,3,0,2,NO
139,417,139.0,139,0,0.0,0,417,139.0,139,3,0,2,NO
73,219,73.0,73,0,0.0,0,219,73.0,73,3,0,2,NO
26,78,26.0,26,0,0.0,0,78,26.0,26,3,0,2,NO
26,78,26.0,26,0,0.0,0,78,26.0,26,3,0,2,NO
21,63,21.0,21,0,0.0,0,63,21.0,21,3,0,2,NO
37,111,37.0,37,0,0.0,0,111,37.0,37,3,0,2,NO
47,141,47.0,47,0,0.0,0,141,47.0,47,3,0,2,NO
107,321,107.0,107,0,0.0,0,321,107.0,107,3,0,2,NO
30,90,30.0,30,0,0.0,0,90,30.0,30,3,0,2,NO
132,634,90.57142857142857,132,86,12.285714285714286,35,556,79.42857142857143,132,7,0,3,NO
41,123,41.0,41,0,0.0,0,123,41.0,41,3,0,2,NO
86,258,86.0,86,0,0.0,0,258,86.0,86,3,0,2,NO
144,432,144.0,144,0,0.0,0,432,144.0,144,3,0,2,NO
398,1197,149.625,386,4,0.5,2,1193,149.125,386,8,0,3,YES
169,507,169.0,169,0,0.0,0,507,169.0,169,3,0,2,NO
34,102,34.0,34,0,0.0,0,102,34.0,34,3,0,2,NO
358,1074,358.0,358,0,0.0,0,1074,358.0,358,3,0,2,NO
31,93,31.0,31,0,0.0,0,93,31.0,31,3,0,2,NO
13,39,13.0,13,0,0.0,0,39,13.0,13,3,0,2,NO
357,1071,357.0,357,0,0.0,0,1071,357.0,357,3,0,2,NO
23,69,23.0,23,0,0.0,0,69,23.0,23,3,0,2,NO
796,2388,796.0,796,0,0.0,0,2388,796.0,796,3,0,2,NO
95,285,95.0,95,0,0.0,0,285,95.0,95,3,0,2,NO
166,498,166.0,166,0,0.0,0,498,166.0,166,3,0,2,NO
15,45,15.0,15,0,0.0,0,45,15.0,15,3,0,2,NO
15,45,15.0,15,0,0.0,0,45,15.0,15,3,0,2,NO
9,27,9.0,9,0,0.0,0,27,9.0,9,3,0,2,NO
157,471,157.0,157,0,0.0,0,471,157.0,157,3,0,2,NO
14,42,14.0,14,0,0.0,0,42,14.0,14,3,0,2,NO
7,21,7.0,7,0,0.0,0,21,7.0,7,3,0,2,NO
17,51,17.0,17,0,0.0,0,51,17.0,17,3,0,2,NO
106,318,106.0,106,0,0.0,0,318,106.0,106,3,0,2,NO
70,210,70.0,70,0,0.0,0,210,70.0,70,3,0,2,NO
9,27,9.0,9,0,0.0,0,27,9.0,9,3,0,2,NO
8,24,8.0,8,0,0.0,0,24,8.0,8,3,0,2,NO
6,18,6.0,6,0,0.0,0,18,6.0,6,3,0,2,NO
6,18,6.0,6,0,0.0,0,18,6.0,6,3,0,2,NO
6,18,6.0,6,0,0.0,0,18,6.0,6,3,0,2,NO
16,48,16.0,16,0,0.0,0,48,16.0,16,3,0,2,NO
15,45,15.0,15,0,0.0,0,45,15.0,15,3,0,2,NO
12,36,12.0,12,0,0.0,0,36,12.0,12,3,0,2,NO
5,15,5.0,5,0,0.0,0,15,5.0,5,3,0,2,NO
8,24,8.0,8,0,0.0,0,24,8.0,8,3,0,2,NO
7,21,7.0,7,0,0.0,0,21,7.0,7,3,0,2,NO
14,42,14.0,14,0,0.0,0,42,14.0,14,3,0,2,NO
14,42,14.0,14,0,0.0,0,42,14.0,14,3,0,2,NO
9,27,9.0,9,0,0.0,0,27,9.0,9,3,0,2,NO
9,27,9.0,9,0,0.0,0,27,9.0,9,3,0,2,NO
9,27,9.0,9,0,0.0,0,27,9.0,9,3,0,2,NO
19,57,19.0,19,0,0.0,0,57,19.0,19,3,0,2,NO
48,144,48.0,48,0,0.0,0,144,48.0,48,3,0,2,NO
24,72,24.0,24,0,0.0,0,72,24.0,24,3,0,2,NO
22,66,22.0,22,0,0.0,0,66,22.0,22,3,0,2,NO
21,63,21.0,21,0,0.0,0,63,21.0,21,3,0,2,NO
14,42,14.0,14,0,0.0,0,42,14.0,14,3,0,2,NO
108,324,108.0,108,0,0.0,0,324,108.0,108,3,0,2,NO
21,63,21.0,21,0,0.0,0,63,21.0,21,3,0,2,NO
31,93,31.0,31,0,0.0,0,93,31.0,31,3,0,2,NO
27,81,27.0,27,0,0.0,0,81,27.0,27,3,0,2,NO
25,75,25.0,25,0,0.0,0,75,25.0,25,3,0,2,NO
29,87,29.0,29,0,0.0,0,87,29.0,29,3,0,2,NO
25,75,25.0,25,0,0.0,0,75,25.0,25,3,0,2,NO
96,288,96.0,96,0,0.0,0,288,96.0,96,3,0,2,NO
36,108,36.0,36,0,0.0,0,108,36.0,36,3,0,2,NO
39,117,39.0,39,0,0.0,0,117,39.0,39,3,0,2,NO
44,132,44.0,44,0,0.0,0,132,44.0,44,3,0,2,NO
32,96,32.0,32,0,0.0,0,96,32.0,32,3,0,2,NO
36,108,36.0,36,0,0.0,0,108,36.0,36,3,0,2,NO
12,36,12.0,12,0,0.0,0,36,12.0,12,3,0,2,NO
31,93,31.0,31,0,0.0,0,93,31.0,31,3,0,2,NO
79,237,79.0,79,0,0.0,0,237,79.0,79,3,0,2,NO
78,234,78.0,78,0,0.0,0,234,78.0,78,3,0,2,NO
34,102,34.0,34,0,0.0,0,102,34.0,34,3,0,2,NO
12,36,12.0,12,0,0.0,0,36,12.0,12,3,0,2,NO
142,426,142.0,142,0,0.0,0,426,142.0,142,3,0,2,NO
36,108,36.0,36,0,0.0,0,108,36.0,36,3,0,2,NO
39,117,39.0,39,0,0.0,0,117,39.0,39,3,0,2,NO
10,30,10.0,10,0,0.0,0,30,10.0,10,3,0,2,NO
78,234,78.0,78,0,0.0,0,234,78.0,78,3,0,2,NO
23,69,23.0,23,0,0.0,0,69,23.0,23,3,0,2,NO
28,84,28.0,28,0,0.0,0,84,28.0,28,3,0,2,NO
44,132,44.0,44,0,0.0,0,132,44.0,44,3,0,2,NO
36,108,36.0,36,0,0.0,0,108,36.0,36,3,0,2,NO
21,63,21.0,21,0,0.0,0,63,21.0,21,3,0,2,NO
47,141,47.0,47,0,0.0,0,141,47.0,47,3,0,2,NO
14,42,14.0,14,0,0.0,0,42,14.0,14,3,0,2,NO
35,105,35.0,35,0,0.0,0,105,35.0,35,3,0,2,NO
12,36,12.0,12,0,0.0,0,36,12.0,12,3,0,2,NO
16,48,16.0,16,0,0.0,0,48,16.0,16,3,0,2,NO
22,66,22.0,22,0,0.0,0,66,22.0,22,3,0,2,NO
201,603,201.0,201,0,0.0,0,603,201.0,201,3,0,2,NO
23,69,23.0,23,0,0.0,0,69,23.0,23,3,0,2,NO
10,30,10.0,10,0,0.0,0,30,10.0,10,3,0,2,NO
67,201,67.0,67,0,0.0,0,201,67.0,67,3,0,2,NO
45,135,45.0,45,0,0.0,0,135,45.0,45,3,0,2,NO
63,189,63.0,63,0,0.0,0,189,63.0,63,3,0,2,NO
42,126,42.0,42,0,0.0,0,126,42.0,42,3,0,2,NO
76,228,76.0,76,0,0.0,0,228,76.0,76,3,0,2,NO
90,270,90.0,90,0,0.0,0,270,90.0,90,3,0,2,NO
56,168,56.0,56,0,0.0,0,168,56.0,56,3,0,2,NO
89,267,89.0,89,0,0.0,0,267,89.0,89,3,0,2,NO
59,177,59.0,59,0,0.0,0,177,59.0,59,3,0,2,NO
75,225,75.0,75,0,0.0,0,225,75.0,75,3,0,2,NO
7,21,7.0,7,0,0.0,0,21,7.0,7,3,0,2,NO
16,48,16.0,16,0,0.0,0,48,16.0,16,3,0,2,NO
14,42,14.0,14,0,0.0,0,42,14.0,14,3,0,2,NO
45,135,45.0,45,0,0.0,0,135,45.0,45,3,0,2,NO
60,180,60.0,60,0,0.0,0,180,60.0,60,3,0,2,NO
8,24,8.0,8,0,0.0,0,24,8.0,8,3,0,2,NO
77,231,77.0,77,0,0.0,0,231,77.0,77,3,0,2,NO
184,552,184.0,184,0,0.0,0,552,184.0,184,3,0,2,NO
154,462,154.0,154,0,0.0,0,462,154.0,154,3,0,2,NO
181,543,181.0,181,0,0.0,0,543,181.0,181,3,0,2,NO
32,96,32.0,32,0,0.0,0,96,32.0,32,3,0,2,NO
21,63,21.0,21,0,0.0,0,63,21.0,21,3,0,2,NO
160,480,160.0,160,0,0.0,0,480,160.0,160,3,0,2,NO
77,231,77.0,77,0,0.0,0,231,77.0,77,3,0,2,NO
121,363,121.0,121,0,0.0,0,363,121.0,121,3,0,2,NO
8,24,8.0,8,0,0.0,0,24,8.0,8,3,0,2,NO
8,24,8.0,8,0,0.0,0,24,8.0,8,3,0,2,NO
19,57,19.0,19,0,0.0,0,57,19.0,19,3,0,2,NO
9,27,9.0,9,0,0.0,0,27,9.0,9,3,0,2,NO
27,81,27.0,27,0,0.0,0,81,27.0,27,3,0,2,NO
35,105,35.0,35,0,0.0,0,105,35.0,35,3,0,2,NO
33,99,33.0,33,0,0.0,0,99,33.0,33,3,0,2,NO
58,178,35.6,54,8,1.6,4,170,34.0,54,5,0,3,NO
11,33,11.0,11,0,0.0,0,33,11.0,11,3,0,2,NO
14,42,14.0,14,0,0.0,0,42,14.0,14,3,0,2,NO
24,72,24.0,24,0,0.0,0,72,24.0,24,3,0,2,NO
9,27,9.0,9,0,0.0,0,27,9.0,9,3,0,2,NO
22,66,22.0,22,0,0.0,0,66,22.0,22,3,0,2,NO
9,27,9.0,9,0,0.0,0,27,9.0,9,3,0,2,NO
13,39,13.0,13,0,0.0,0,39,13.0,13,3,0,2,NO
8,24,8.0,8,0,0.0,0,24,8.0,8,3,0,2,NO
16,48,16.0,16,0,0.0,0,48,16.0,16,3,0,2,NO
27,81,27.0,27,0,0.0,0,81,27.0,27,3,0,2,NO
6,18,6.0,6,0,0.0,0,18,6.0,6,3,0,2,NO
63,189,63.0,63,0,0.0,0,189,63.0,63,3,0,2,NO
62,186,62.0,62,0,0.0,0,186,62.0,62,3,0,2,NO
9,27,9.0,9,0,0.0,0,27,9.0,9,3,0,2,NO
66,198,66.0,66,0,0.0,0,198,66.0,66,3,0,2,NO
75,225,75.0,75,0,0.0,0,225,75.0,75,3,0,2,NO
9,27,9.0,9,0,0.0,0,27,9.0,9,3,0,2,NO
68,204,68.0,68,0,0.0,0,204,68.0,68,3,0,2,NO
50,150,50.0,50,0,0.0,0,150,50.0,50,3,0,2,NO
103,309,103.0,103,0,0.0,0,309,103.0,103,3,0,2,NO
9,27,9.0,9,0,0.0,0,27,9.0,9,3,0,2,NO
59,177,59.0,59,0,0.0,0,177,59.0,59,3,0,2,NO
92,276,92.0,92,0,0.0,0,276,92.0,92,3,0,2,NO
7,21,7.0,7,0,0.0,0,21,7.0,7,3,0,2,NO
10,30,10.0,10,0,0.0,0,30,10.0,10,3,0,2,NO
30,90,30.0,30,0,0.0,0,90,30.0,30,3,0,2,NO
168,504,168.0,168,0,0.0,0,504,168.0,168,3,0,2,NO
79,237,79.0,79,0,0.0,0,237,79.0,79,3,0,2,NO
80,242,48.4,68,14,2.8,7,228,45.6,68,5,0,3,NO
6,18,6.0,6,0,0.0,0,18,6.0,6,3,0,2,NO
137,414,69.0,137,3,0.5,1,411,68.5,137,6,0,2,NO
30,90,30.0,30,0,0.0,0,90,30.0,30,3,0,2,NO
134,405,67.5,134,3,0.5,1,402,67.0,134,6,0,2,NO
149,447,149.0,149,0,0.0,0,447,149.0,149,3,0,2,NO
19,57,19.0,19,0,0.0,0,57,19.0,19,3,0,2,NO
15,45,15.0,15,0,0.0,0,45,15.0,15,3,0,2,NO
13,39,13.0,13,0,0.0,0,39,13.0,13,3,0,2,NO
20,60,20.0,20,0,0.0,0,60,20.0,20,3,0,2,NO
16,48,16.0,16,0,0.0,0,48,16.0,16,3,0,2,NO
15,45,15.0,15,0,0.0,0,45,15.0,15,3,0,2,NO
268,804,268.0,268,0,0.0,0,804,268.0,268,3,0,2,NO
49,147,49.0,49,0,0.0,0,147,49.0,49,3,0,2,NO
408,1224,408.0,408,0,0.0,0,1224,408.0,408,3,0,2,NO
705,2115,705.0,705,0,0.0,0,2115,705.0,705,3,0,2,NO
130,393,65.5,119,3,0.5,1,390,65.0,119,6,0,2,NO
118,354,118.0,118,0,0.0,0,354,118.0,118,3,0,2,NO
75,225,75.0,75,0,0.0,0,225,75.0,75,3,0,2,NO
27,81,27.0,27,0,0.0,0,81,27.0,27,3,0,2,NO
55,165,55.0,55,0,0.0,0,165,55.0,55,3,0,2,NO
311,933,311.0,311,0,0.0,0,933,311.0,311,3,0,2,NO
44,132,44.0,44,0,0.0,0,132,44.0,44,3,0,2,NO
11,33,11.0,11,0,0.0,0,33,11.0,11,3,0,2,NO
33,99,33.0,33,0,0.0,0,99,33.0,33,3,0,2,NO
18,54,18.0,18,0,0.0,0,54,18.0,18,3,0,2,NO
115,345,115.0,115,0,0.0,0,345,115.0,115,3,0,2,NO
201,794,34.52173913043478,199,177,7.695652173913044,31,659,28.652173913043477,199,23,0,6,NO
50,168,18.666666666666668,53,18,2.0,11,172,19.11111111111111,53,9,0,2,NO
51,249,27.666666666666668,72,96,10.666666666666666,60,257,28.555555555555557,51,9,0,2,NO
153,462,115.5,153,3,0.75,3,459,114.75,153,4,0,2,NO
68,215,30.714285714285715,75,11,1.5714285714285714,6,218,31.142857142857142,75,7,0,2,NO
22,159,19.875,94,93,11.625,44,218,27.25,94,8,0,2,NO
120,371,41.22222222222222,114,11,1.2222222222222223,4,360,40.0,114,9,0,5,NO
111,419,38.09090909090909,111,86,7.818181818181818,51,343,31.181818181818183,111,11,0,2,NO
27,92,15.333333333333334,33,11,1.8333333333333333,7,93,15.5,33,6,0,2,NO
59,201,25.125,59,24,3.0,10,177,22.125,59,8,0,2,NO
28,95,15.833333333333334,35,11,1.8333333333333333,8,98,16.333333333333332,35,6,0,2,NO
100,114,38.0,84,14,4.666666666666667,12,116,38.666666666666664,84,3,0,1,NO
122,30,7.5,14,57,14.25,35,39,9.75,26,4,0,1,NO
146,200,50.0,177,54,13.5,42,218,54.5,177,4,0,1,NO
76,0,0.0,0,1,1.0,1,1,1.0,1,1,0,1,NO
52,54,27.0,49,2,1.0,2,52,26.0,49,2,0,1,NO
88,0,0.0,0,0,0.0,0,0,0.0,0,0,0,0,NO
40,0,0.0,0,0,0.0,0,0,0.0,0,0,0,0,NO
32,0,0.0,0,0,0.0,0,0,0.0,0,0,0,0,NO
40,40,20.0,26,0,0.0,0,40,20.0,26,2,0,1,NO
51,2,2.0,2,2,2.0,2,0,0.0,0,1,0,1,NO
81,13,13.0,13,5,5.0,5,8,8.0,8,1,0,1,NO
35,1,1.0,1,1,1.0,1,0,0.0,0,1,0,1,NO
46,1,1.0,1,1,1.0,1,0,0.0,0,1,0,1,NO
46,2,2.0,2,2,2.0,2,0,0.0,0,1,0,1,NO
27,30,15.0,29,3,1.5,3,31,15.5,29,2,0,1,NO
12,12,12.0,12,0,0.0,0,12,12.0,12,1,0,1,NO
280,372,124.0,209,92,30.666666666666668,87,280,93.33333333333333,147,3,0,1,NO
29,30,15.0,30,1,0.5,1,31,15.5,30,2,0,1,NO
14,14,14.0,14,0,0.0,0,14,14.0,14,1,0,1,NO
73,73,73.0,73,0,0.0,0,73,73.0,73,1,0,1,NO
54,54,27.0,49,0,0.0,0,54,27.0,49,2,0,1,NO
83,83,83.0,83,0,0.0,0,83,83.0,83,1,0,1,NO
38,38,38.0,38,0,0.0,0,38,38.0,38,1,0,1,NO
32,32,32.0,32,0,0.0,0,32,32.0,32,1,0,1,NO
40,40,20.0,26,0,0.0,0,40,20.0,26,2,0,1,NO
50,50,50.0,50,0,0.0,0,50,50.0,50,1,0,1,NO
81,81,81.0,81,0,0.0,0,81,81.0,81,1,0,1,NO
35,35,35.0,35,0,0.0,0,35,35.0,35,1,0,1,NO
46,46,46.0,46,0,0.0,0,46,46.0,46,1,0,1,NO
46,46,46.0,46,0,0.0,0,46,46.0,46,1,0,1,NO
183,183,183.0,183,0,0.0,0,183,183.0,183,1,0,1,NO
192,192,192.0,192,0,0.0,0,192,192.0,192,1,0,1,NO
80,80,80.0,80,0,0.0,0,80,80.0,80,1,0,1,NO
71,71,71.0,71,0,0.0,0,71,71.0,71,1,0,1,NO
69,69,69.0,69,0,0.0,0,69,69.0,69,1,0,1,NO
78,630,45.0,78,6,0.42857142857142855,2,626,44.714285714285715,78,14,0,7,YES
87,701,53.92307692307692,87,5,0.38461538461538464,2,698,53.69230769230769,87,13,0,7,YES
68,544,60.44444444444444,68,0,0.0,0,544,60.44444444444444,68,9,0,6,YES
58,479,34.214285714285715,58,31,2.2142857142857144,10,454,32.42857142857143,58,14,0,7,YES
196,1573,121.0,196,5,0.38461538461538464,2,1570,120.76923076923077,196,13,0,7,YES
78,682,68.2,78,4,0.4,4,678,67.8,78,10,0,7,YES
64,512,56.888888888888886,64,0,0.0,0,512,56.888888888888886,64,9,0,6,YES
173,1384,153.77777777777777,173,0,0.0,0,1384,153.77777777777777,173,9,0,6,YES
246,1968,218.66666666666666,246,0,0.0,0,1968,218.66666666666666,246,9,0,6,YES
107,861,66.23076923076923,107,5,0.38461538461538464,2,858,66.0,107,13,0,7,YES
110,880,97.77777777777777,110,0,0.0,0,880,97.77777777777777,110,9,0,6,YES
58,464,51.55555555555556,58,0,0.0,0,464,51.55555555555556,58,9,0,6,YES
37,296,32.888888888888886,37,0,0.0,0,296,32.888888888888886,37,9,0,6,YES
142,1136,126.22222222222223,142,0,0.0,0,1136,126.22222222222223,142,9,0,6,YES
114,912,101.33333333333333,114,0,0.0,0,912,101.33333333333333,114,9,0,6,YES
59,472,52.44444444444444,59,0,0.0,0,472,52.44444444444444,59,9,0,6,YES
64,512,56.888888888888886,64,0,0.0,0,512,56.888888888888886,64,9,0,6,YES
164,1412,108.61538461538461,164,268,20.615384615384617,99,1144,88.0,164,13,0,7,YES
70,560,62.22222222222222,70,0,0.0,0,560,62.22222222222222,70,9,0,6,YES
32,256,28.444444444444443,32,0,0.0,0,256,28.444444444444443,32,9,0,6,YES
148,1184,131.55555555555554,148,0,0.0,0,1184,131.55555555555554,148,9,0,6,YES
156,1248,138.66666666666666,156,0,0.0,0,1248,138.66666666666666,156,9,0,6,YES
119,952,105.77777777777777,119,0,0.0,0,952,105.77777777777777,119,9,0,6,YES
118,944,104.88888888888889,118,0,0.0,0,944,104.88888888888889,118,9,0,6,YES
156,1248,138.66666666666666,156,0,0.0,0,1248,138.66666666666666,156,9,0,6,YES
85,685,52.69230769230769,85,5,0.38461538461538464,2,682,52.46153846153846,85,13,0,7,YES
39,320,32.0,39,0,0.0,0,320,32.0,39,10,0,7,YES
33,264,29.333333333333332,33,0,0.0,0,264,29.333333333333332,33,9,0,6,YES
146,1168,129.77777777777777,146,0,0.0,0,1168,129.77777777777777,146,9,0,6,YES
113,904,100.44444444444444,113,0,0.0,0,904,100.44444444444444,113,9,0,6,YES
147,1176,130.66666666666666,147,0,0.0,0,1176,130.66666666666666,147,9,0,6,YES
40,320,35.55555555555556,40,0,0.0,0,320,35.55555555555556,40,9,0,6,YES
125,1000,111.11111111111111,125,0,0.0,0,1000,111.11111111111111,125,9,0,6,YES
252,2016,224.0,252,0,0.0,0,2016,224.0,252,9,0,6,YES
368,2944,327.1111111111111,368,0,0.0,0,2944,327.1111111111111,368,9,0,6,YES
106,848,94.22222222222223,106,0,0.0,0,848,94.22222222222223,106,9,0,6,YES
181,1448,160.88888888888889,181,0,0.0,0,1448,160.88888888888889,181,9,0,6,YES
81,652,54.333333333333336,81,4,0.3333333333333333,2,648,54.0,81,12,0,8,YES
25,206,18.727272727272727,25,6,0.5454545454545454,4,200,18.181818181818183,25,11,0,7,YES
147,1187,84.78571428571429,147,21,1.5,7,1166,83.28571428571429,147,14,0,8,YES
94,752,83.55555555555556,94,0,0.0,0,752,83.55555555555556,94,9,0,6,YES
29,232,25.77777777777778,29,0,0.0,0,232,25.77777777777778,29,9,0,6,YES
52,406,36.90909090909091,52,0,0.0,0,406,36.90909090909091,52,11,0,7,YES
43,348,38.666666666666664,43,4,0.4444444444444444,4,344,38.22222222222222,43,9,0,6,YES
195,1551,141.0,195,16,1.4545454545454546,8,1535,139.54545454545453,195,11,0,7,YES
243,1914,159.5,243,10,0.8333333333333334,4,1904,158.66666666666666,243,12,0,7,YES
28,224,24.88888888888889,28,0,0.0,0,224,24.88888888888889,28,9,0,6,YES
37,291,26.454545454545453,37,0,0.0,0,291,26.454545454545453,37,11,0,7,YES
64,519,51.9,64,2,0.2,2,517,51.7,64,10,0,7,YES
28,214,19.454545454545453,28,0,0.0,0,214,19.454545454545453,28,11,0,7,YES
265,2122,141.46666666666667,265,122,8.133333333333333,59,2000,133.33333333333334,265,15,0,7,YES
36,288,32.0,36,0,0.0,0,288,32.0,36,9,0,6,YES
51,393,35.72727272727273,51,0,0.0,0,393,35.72727272727273,51,11,0,7,YES
38,304,33.77777777777778,38,0,0.0,0,304,33.77777777777778,38,9,0,6,YES
52,416,46.22222222222222,52,0,0.0,0,416,46.22222222222222,52,9,0,6,YES
37,296,32.888888888888886,37,0,0.0,0,296,32.888888888888886,37,9,0,6,YES
46,370,33.63636363636363,46,2,0.18181818181818182,1,368,33.45454545454545,46,11,0,7,YES
113,901,81.9090909090909,113,2,0.18181818181818182,1,899,81.72727272727273,113,11,0,7,YES
36,294,26.727272727272727,36,6,0.5454545454545454,4,288,26.181818181818183,36,11,0,7,YES
116,936,72.0,116,8,0.6153846153846154,3,928,71.38461538461539,116,13,0,8,YES
89,712,79.11111111111111,89,0,0.0,0,712,79.11111111111111,89,9,0,6,YES
50,404,44.888888888888886,50,4,0.4444444444444444,4,400,44.44444444444444,50,9,0,6,YES
31,248,27.555555555555557,31,0,0.0,0,248,27.555555555555557,31,9,0,6,YES
98,797,72.45454545454545,99,8,0.7272727272727273,4,793,72.0909090909091,99,11,0,7,YES
26,208,23.11111111111111,26,0,0.0,0,208,23.11111111111111,26,9,0,6,YES
25,200,22.22222222222222,25,0,0.0,0,200,22.22222222222222,25,9,0,6,YES
40,320,35.55555555555556,40,0,0.0,0,320,35.55555555555556,40,9,0,6,YES
59,472,52.44444444444444,59,0,0.0,0,472,52.44444444444444,59,9,0,6,YES
36,288,32.0,36,0,0.0,0,288,32.0,36,9,0,6,YES
58,466,42.36363636363637,58,2,0.18181818181818182,1,464,42.18181818181818,58,11,0,7,YES
37,296,32.888888888888886,37,0,0.0,0,296,32.888888888888886,37,9,0,6,YES
268,2155,195.9090909090909,269,6,0.5454545454545454,4,2153,195.72727272727272,269,11,0,7,YES
70,570,51.81818181818182,70,50,4.545454545454546,25,520,47.27272727272727,70,11,0,7,YES
72,216,72.0,72,0,0.0,0,216,72.0,72,3,0,3,NO
993,608,20.266666666666666,356,101,3.3666666666666667,13,611,20.366666666666667,344,30,3,12,YES
155,307,34.111111111111114,139,19,2.111111111111111,19,288,32.0,120,9,1,5,YES
35,19,9.5,17,1,0.5,1,18,9.0,17,2,0,2,NO
47,19,9.5,17,0,0.0,0,19,9.5,17,2,0,2,NO
27,17,17.0,17,0,0.0,0,17,17.0,17,1,0,1,NO
301,883,33.96153846153846,154,195,7.5,28,704,27.076923076923077,132,26,0,9,YES
119,17,17.0,17,0,0.0,0,17,17.0,17,1,0,1,NO
153,17,17.0,17,0,0.0,0,17,17.0,17,1,0,1,NO
51,17,17.0,17,0,0.0,0,17,17.0,17,1,0,1,NO
51,17,17.0,17,0,0.0,0,17,17.0,17,1,0,1,NO
108,17,17.0,17,0,0.0,0,17,17.0,17,1,0,1,NO
46,17,17.0,17,0,0.0,0,17,17.0,17,1,0,1,NO
53,17,17.0,17,0,0.0,0,17,17.0,17,1,0,1,NO
436,17,17.0,17,0,0.0,0,17,17.0,17,1,0,1,NO
382,17,17.0,17,0,0.0,0,17,17.0,17,1,0,1,NO
30,17,17.0,17,0,0.0,0,17,17.0,17,1,0,1,NO
22,17,17.0,17,0,0.0,0,17,17.0,17,1,0,1,NO
91,86,21.5,54,52,13.0,37,34,8.5,17,4,0,4,NO
169,115,28.75,92,14,3.5,8,101,25.25,84,4,0,4,NO
75,17,17.0,17,0,0.0,0,17,17.0,17,1,0,1,NO
93,17,17.0,17,0,0.0,0,17,17.0,17,1,0,1,NO
49,17,17.0,17,0,0.0,0,17,17.0,17,1,0,1,NO
383,17,17.0,17,0,0.0,0,17,17.0,17,1,0,1,NO
59,17,17.0,17,0,0.0,0,17,17.0,17,1,0,1,NO
95,52,13.0,32,6,1.5,3,46,11.5,29,4,0,4,NO
344,86,28.666666666666668,40,69,23.0,23,17,5.666666666666667,17,3,0,3,NO
443,107,35.666666666666664,47,90,30.0,30,17,5.666666666666667,17,3,0,3,NO
1127,290,96.66666666666667,108,273,91.0,91,17,5.666666666666667,17,3,0,3,NO
614,146,48.666666666666664,60,129,43.0,43,17,5.666666666666667,17,3,0,3,NO
723,167,55.666666666666664,67,150,50.0,50,17,5.666666666666667,17,3,0,3,NO
402,116,38.666666666666664,50,99,33.0,33,17,5.666666666666667,17,3,0,3,NO
344,86,28.666666666666668,40,69,23.0,23,17,5.666666666666667,17,3,0,3,NO
441,107,35.666666666666664,47,90,30.0,30,17,5.666666666666667,17,3,0,3,NO
981,391,97.75,107,276,69.0,90,115,28.75,98,4,0,4,NO
2032,926,231.5,333,595,148.75,192,331,82.75,314,4,0,4,NO
625,851,121.57142857142857,186,98,14.0,30,753,107.57142857142857,184,7,0,5,YES
436,107,35.666666666666664,47,90,30.0,30,17,5.666666666666667,17,3,0,3,NO
335,101,33.666666666666664,45,84,28.0,28,17,5.666666666666667,17,3,0,3,NO
695,176,58.666666666666664,70,159,53.0,53,17,5.666666666666667,17,3,0,3,NO
824,188,62.666666666666664,74,171,57.0,57,17,5.666666666666667,17,3,0,3,NO
441,107,35.666666666666664,47,90,30.0,30,17,5.666666666666667,17,3,0,3,NO
679,185,61.666666666666664,73,168,56.0,56,17,5.666666666666667,17,3,0,3,NO
344,86,28.666666666666668,40,69,23.0,23,17,5.666666666666667,17,3,0,3,NO
479,116,38.666666666666664,50,99,33.0,33,17,5.666666666666667,17,3,0,3,NO
549,152,50.666666666666664,62,135,45.0,45,17,5.666666666666667,17,3,0,3,NO
336,83,27.666666666666668,39,66,22.0,22,17,5.666666666666667,17,3,0,3,NO
13508,6450,1612.5,2881,3665,916.25,1184,2785,696.25,2768,4,0,4,NO
344,86,28.666666666666668,40,69,23.0,23,17,5.666666666666667,17,3,0,3,NO
241,65,21.666666666666668,33,48,16.0,16,17,5.666666666666667,17,3,0,3,NO
565,131,43.666666666666664,55,114,38.0,38,17,5.666666666666667,17,3,0,3,NO
433,101,33.666666666666664,45,84,28.0,28,17,5.666666666666667,17,3,0,3,NO
443,107,35.666666666666664,47,90,30.0,30,17,5.666666666666667,17,3,0,3,NO
772,200,66.66666666666667,78,183,61.0,61,17,5.666666666666667,17,3,0,3,NO
443,107,35.666666666666664,47,90,30.0,30,17,5.666666666666667,17,3,0,3,NO
676,164,54.666666666666664,66,147,49.0,49,17,5.666666666666667,17,3,0,3,NO
478,116,38.666666666666664,50,99,33.0,33,17,5.666666666666667,17,3,0,3,NO
356,183,45.75,97,70,17.5,23,113,28.25,96,4,0,4,NO
722,170,56.666666666666664,68,153,51.0,51,17,5.666666666666667,17,3,0,3,NO
934,412,103.0,191,205,51.25,68,207,51.75,190,4,0,4,NO
61,23,7.666666666666667,19,6,2.0,2,17,5.666666666666667,17,3,0,3,NO
911,403,100.75,191,196,49.0,65,207,51.75,190,4,0,4,NO
43,17,17.0,17,0,0.0,0,17,17.0,17,1,0,1,NO
61,17,17.0,17,0,0.0,0,17,17.0,17,1,0,1,NO
38,17,17.0,17,0,0.0,0,17,17.0,17,1,0,1,NO
32,17,17.0,17,0,0.0,0,17,17.0,17,1,0,1,NO
32,17,17.0,17,0,0.0,0,17,17.0,17,1,0,1,NO
32,17,17.0,17,0,0.0,0,17,17.0,17,1,0,1,NO
35,17,17.0,17,0,0.0,0,17,17.0,17,1,0,1,NO
30,17,17.0,17,0,0.0,0,17,17.0,17,1,0,1,NO
30,17,17.0,17,0,0.0,0,17,17.0,17,1,0,1,NO
49,101,12.625,19,18,2.25,6,95,11.875,17,8,1,6,YES
59,17,17.0,17,0,0.0,0,17,17.0,17,1,0,1,NO
53,17,17.0,17,0,0.0,0,17,17.0,17,1,0,1,NO
57,17,17.0,17,0,0.0,0,17,17.0,17,1,0,1,NO
350,2579,88.93103448275862,232,1447,49.89655172413793,166,1158,39.93103448275862,221,29,2,12,YES
112,486,28.58823529411765,67,85,5.0,9,401,23.58823529411765,67,17,1,9,YES
69,91,13.0,67,12,1.7142857142857142,2,79,11.285714285714286,67,7,1,6,YES
136,266,19.0,168,364,26.0,46,484,34.57142857142857,168,14,1,9,YES
115,505,63.125,85,240,30.0,40,265,33.125,85,8,1,6,YES
39,39,39.0,39,0,0.0,0,39,39.0,39,1,0,1,YES
52,264,22.0,35,3,0.25,1,261,21.75,35,12,1,6,YES
243,911,50.611111111111114,136,133,7.388888888888889,20,798,44.333333333333336,136,18,1,9,YES
41,246,41.0,41,0,0.0,0,246,41.0,41,6,1,5,YES
44,50,7.142857142857143,44,6,0.8571428571428571,1,44,6.285714285714286,44,7,1,6,YES
66,179,22.375,70,133,16.625,22,94,11.75,70,8,1,6,YES
45,45,45.0,45,0,0.0,0,45,45.0,45,1,0,1,YES
72,17,17.0,17,0,0.0,0,17,17.0,17,1,0,1,NO
64,17,17.0,17,0,0.0,0,17,17.0,17,1,0,1,NO
155,17,17.0,17,0,0.0,0,17,17.0,17,1,0,1,NO
34,17,17.0,17,0,0.0,0,17,17.0,17,1,0,1,NO
38,17,17.0,17,0,0.0,0,17,17.0,17,1,0,1,NO
41,17,17.0,17,0,0.0,0,17,17.0,17,1,0,1,NO
23,17,17.0,17,0,0.0,0,17,17.0,17,1,0,1,NO
22,17,17.0,17,0,0.0,0,17,17.0,17,1,0,1,NO
60,17,17.0,17,0,0.0,0,17,17.0,17,1,0,1,NO
24,17,17.0,17,0,0.0,0,17,17.0,17,1,0,1,NO
22,17,17.0,17,0,0.0,0,17,17.0,17,1,0,1,NO
55,17,17.0,17,0,0.0,0,17,17.0,17,1,0,1,NO
45,17,17.0,17,0,0.0,0,17,17.0,17,1,0,1,NO
50,17,17.0,17,0,0.0,0,17,17.0,17,1,0,1,NO
38,17,17.0,17,0,0.0,0,17,17.0,17,1,0,1,NO
31,17,17.0,17,0,0.0,0,17,17.0,17,1,0,1,NO
80,177,35.4,63,0,0.0,0,177,35.4,63,5,0,3,YES
82,181,36.2,65,0,0.0,0,181,36.2,65,5,0,3,YES
179,396,44.0,162,3,0.3333333333333333,2,397,44.111111111111114,162,9,0,5,YES
40,97,19.4,23,0,0.0,0,97,19.4,23,5,0,3,YES
122,304,38.0,105,3,0.375,3,301,37.625,105,8,0,5,YES
51,122,20.333333333333332,34,3,0.5,3,119,19.833333333333332,34,6,0,4,YES
31,17,17.0,17,0,0.0,0,17,17.0,17,1,0,1,NO
28,17,17.0,17,0,0.0,0,17,17.0,17,1,0,1,NO
25,17,17.0,17,0,0.0,0,17,17.0,17,1,0,1,NO
25,17,17.0,17,0,0.0,0,17,17.0,17,1,0,1,NO
33,17,17.0,17,0,0.0,0,17,17.0,17,1,0,1,NO
435,30,15.0,17,0,0.0,0,30,15.0,17,2,0,2,NO
54,54,54.0,54,37,37.0,37,17,17.0,17,1,0,1,NO
39,17,17.0,17,0,0.0,0,17,17.0,17,1,0,1,NO
40,17,17.0,17,0,0.0,0,17,17.0,17,1,0,1,NO
45,17,17.0,17,0,0.0,0,17,17.0,17,1,0,1,NO
58,57,57.0,57,40,40.0,40,17,17.0,17,1,0,1,NO
110,109,109.0,109,92,92.0,92,17,17.0,17,1,0,1,NO
89,17,17.0,17,0,0.0,0,17,17.0,17,1,0,1,NO
57,57,57.0,57,40,40.0,40,17,17.0,17,1,0,1,NO
89,17,17.0,17,0,0.0,0,17,17.0,17,1,0,1,NO
52,17,17.0,17,0,0.0,0,17,17.0,17,1,0,1,NO
97,172,86.0,155,10,5.0,10,162,81.0,145,2,0,2,YES
47,17,17.0,17,0,0.0,0,17,17.0,17,1,0,1,NO
55,38,9.5,21,17,4.25,5,21,5.25,17,4,0,4,NO
108,26,13.0,17,1,0.5,1,25,12.5,17,2,0,2,NO
160,83,20.75,30,53,13.25,17,30,7.5,17,4,0,4,YES
124,101,25.25,48,49,12.25,13,52,13.0,35,4,0,4,NO
79,92,23.0,60,40,10.0,25,52,13.0,35,4,0,4,NO
79,33,8.25,19,15,3.75,9,18,4.5,17,4,0,4,NO
57,19,9.5,17,2,1.0,2,17,8.5,17,2,0,2,NO
57,20,10.0,17,3,1.5,3,17,8.5,17,2,0,2,NO
110,17,17.0,17,0,0.0,0,17,17.0,17,1,0,1,NO
69,33,8.25,22,15,3.75,5,18,4.5,17,4,0,4,NO
114,17,17.0,17,0,0.0,0,17,17.0,17,1,0,1,NO
89,17,17.0,17,0,0.0,0,17,17.0,17,1,0,1,NO
64,17,17.0,17,0,0.0,0,17,17.0,17,1,0,1,NO
23,17,17.0,17,0,0.0,0,17,17.0,17,1,0,1,NO
40,17,17.0,17,0,0.0,0,17,17.0,17,1,0,1,NO
25,17,17.0,17,0,0.0,0,17,17.0,17,1,0,1,NO
26,17,17.0,17,0,0.0,0,17,17.0,17,1,0,1,NO
59,17,17.0,17,0,0.0,0,17,17.0,17,1,0,1,NO
60,17,17.0,17,0,0.0,0,17,17.0,17,1,0,1,NO
51,17,17.0,17,0,0.0,0,17,17.0,17,1,0,1,NO
58,17,17.0,17,0,0.0,0,17,17.0,17,1,0,1,NO
61,17,17.0,17,0,0.0,0,17,17.0,17,1,0,1,NO
224,17,17.0,17,0,0.0,0,17,17.0,17,1,0,1,NO
32,17,17.0,17,0,0.0,0,17,17.0,17,1,0,1,NO
32,17,17.0,17,0,0.0,0,17,17.0,17,1,0,1,NO
32,17,17.0,17,0,0.0,0,17,17.0,17,1,0,1,NO
32,17,17.0,17,0,0.0,0,17,17.0,17,1,0,1,NO
23,17,17.0,17,0,0.0,0,17,17.0,17,1,0,1,NO
24,17,17.0,17,0,0.0,0,17,17.0,17,1,0,1,NO
105,17,17.0,17,0,0.0,0,17,17.0,17,1,0,1,YES
29,17,17.0,17,0,0.0,0,17,17.0,17,1,0,1,NO
34,17,17.0,17,0,0.0,0,17,17.0,17,1,0,1,NO
28,17,17.0,17,0,0.0,0,17,17.0,17,1,0,1,NO
31,17,17.0,17,0,0.0,0,17,17.0,17,1,0,1,NO
38,17,17.0,17,0,0.0,0,17,17.0,17,1,0,1,NO
32,17,17.0,17,0,0.0,0,17,17.0,17,1,0,1,NO
28,17,17.0,17,0,0.0,0,17,17.0,17,1,0,1,NO
41,17,17.0,17,0,0.0,0,17,17.0,17,1,0,1,NO
130,253,19.46153846153846,61,175,13.461538461538462,51,154,11.846153846153847,61,13,0,5,YES
41,17,17.0,17,0,0.0,0,17,17.0,17,1,0,1,NO
134,17,17.0,17,0,0.0,0,17,17.0,17,1,0,1,NO
29,17,17.0,17,0,0.0,0,17,17.0,17,1,0,1,NO
22,17,17.0,17,0,0.0,0,17,17.0,17,1,0,1,NO
25,17,17.0,17,0,0.0,0,17,17.0,17,1,0,1,NO
24,17,17.0,17,0,0.0,0,17,17.0,17,1,0,1,NO
28,17,17.0,17,0,0.0,0,17,17.0,17,1,0,1,NO
30,17,17.0,17,0,0.0,0,17,17.0,17,1,0,1,NO
198,17,17.0,17,0,0.0,0,17,17.0,17,1,0,1,NO
84,17,17.0,17,0,0.0,0,17,17.0,17,1,0,1,NO
22,17,17.0,17,0,0.0,0,17,17.0,17,1,0,1,NO
31,17,17.0,17,0,0.0,0,17,17.0,17,1,0,1,NO
32,17,17.0,17,0,0.0,0,17,17.0,17,1,0,1,NO
225,17,17.0,17,0,0.0,0,17,17.0,17,1,0,1,NO
230,271,20.846153846153847,59,202,15.538461538461538,62,171,13.153846153846153,59,13,1,6,YES
286,186,9.789473684210526,24,26,1.368421052631579,16,164,8.631578947368421,24,19,0,8,YES
106,17,17.0,17,0,0.0,0,17,17.0,17,1,0,1,NO
25,17,17.0,17,0,0.0,0,17,17.0,17,1,0,1,NO
52,17,17.0,17,0,0.0,0,17,17.0,17,1,0,1,NO
52,17,17.0,17,0,0.0,0,17,17.0,17,1,0,1,NO
72,17,17.0,17,0,0.0,0,17,17.0,17,1,0,1,NO
39,17,17.0,17,0,0.0,0,17,17.0,17,1,0,1,NO
48,17,17.0,17,0,0.0,0,17,17.0,17,1,0,1,NO
42,17,17.0,17,0,0.0,0,17,17.0,17,1,0,1,NO
67,67,67.0,67,50,50.0,50,17,17.0,17,1,0,1,NO
55,17,17.0,17,0,0.0,0,17,17.0,17,1,0,1,NO
57,17,17.0,17,0,0.0,0,17,17.0,17,1,0,1,NO
100,17,17.0,17,0,0.0,0,17,17.0,17,1,0,1,NO
42,17,17.0,17,0,0.0,0,17,17.0,17,1,0,1,NO
179,17,17.0,17,0,0.0,0,17,17.0,17,1,0,1,NO
42,17,17.0,17,0,0.0,0,17,17.0,17,1,0,1,NO
61,17,17.0,17,0,0.0,0,17,17.0,17,1,0,1,NO
24,17,17.0,17,0,0.0,0,17,17.0,17,1,0,1,NO
61,17,17.0,17,0,0.0,0,17,17.0,17,1,0,1,NO
181,17,17.0,17,0,0.0,0,17,17.0,17,1,0,1,NO
38,17,17.0,17,0,0.0,0,17,17.0,17,1,0,1,NO
57,57,57.0,57,40,40.0,40,17,17.0,17,1,0,1,NO
51,51,51.0,51,34,34.0,34,17,17.0,17,1,0,1,NO
60,60,60.0,60,43,43.0,43,17,17.0,17,1,0,1,NO
50,17,17.0,17,0,0.0,0,17,17.0,17,1,0,1,NO
51,17,17.0,17,0,0.0,0,17,17.0,17,1,0,1,NO
186,17,17.0,17,0,0.0,0,17,17.0,17,1,0,1,NO
52,17,17.0,17,0,0.0,0,17,17.0,17,1,0,1,NO
105,17,17.0,17,0,0.0,0,17,17.0,17,1,0,1,NO
63,17,17.0,17,0,0.0,0,17,17.0,17,1,0,1,NO
62,17,17.0,17,0,0.0,0,17,17.0,17,1,0,1,NO
139,860,107.5,139,26,3.25,13,834,104.25,139,8,1,5,YES
76,456,76.0,76,0,0.0,0,456,76.0,76,6,1,5,YES
60,17,17.0,17,0,0.0,0,17,17.0,17,1,0,1,NO
41,41,41.0,41,24,24.0,24,17,17.0,17,1,0,1,NO
31,17,17.0,17,0,0.0,0,17,17.0,17,1,0,1,NO
45,17,17.0,17,0,0.0,0,17,17.0,17,1,0,1,NO
85,17,17.0,17,0,0.0,0,17,17.0,17,1,0,1,NO
37,17,17.0,17,0,0.0,0,17,17.0,17,1,0,1,NO
61,17,17.0,17,0,0.0,0,17,17.0,17,1,0,1,NO
86,17,17.0,17,0,0.0,0,17,17.0,17,1,0,1,NO
34,34,34.0,34,17,17.0,17,17,17.0,17,1,0,1,NO
83,17,17.0,17,0,0.0,0,17,17.0,17,1,0,1,NO
54,17,17.0,17,0,0.0,0,17,17.0,17,1,0,1,NO
67,17,17.0,17,0,0.0,0,17,17.0,17,1,0,1,NO
62,17,17.0,17,0,0.0,0,17,17.0,17,1,0,1,NO
22,17,17.0,17,0,0.0,0,17,17.0,17,1,0,1,NO
29,17,17.0,17,0,0.0,0,17,17.0,17,1,0,1,NO
36,17,17.0,17,0,0.0,0,17,17.0,17,1,0,1,NO
33,17,17.0,17,0,0.0,0,17,17.0,17,1,0,1,NO
26,17,17.0,17,0,0.0,0,17,17.0,17,1,0,1,NO
44,17,17.0,17,0,0.0,0,17,17.0,17,1,0,1,NO
29,17,17.0,17,0,0.0,0,17,17.0,17,1,0,1,NO
29,17,17.0,17,0,0.0,0,17,17.0,17,1,0,1,NO
25,17,17.0,17,0,0.0,0,17,17.0,17,1,0,1,NO
53,17,17.0,17,0,0.0,0,17,17.0,17,1,0,1,NO
32,17,17.0,17,0,0.0,0,17,17.0,17,1,0,1,NO
53,17,17.0,17,0,0.0,0,17,17.0,17,1,0,1,NO
36,17,17.0,17,0,0.0,0,17,17.0,17,1,0,1,NO
22,17,17.0,17,0,0.0,0,17,17.0,17,1,0,1,NO
359,17,17.0,17,0,0.0,0,17,17.0,17,1,0,1,NO
33,17,17.0,17,0,0.0,0,17,17.0,17,1,0,1,NO
25,17,17.0,17,0,0.0,0,17,17.0,17,1,0,1,NO
28,17,17.0,17,0,0.0,0,17,17.0,17,1,0,1,NO
25,17,17.0,17,0,0.0,0,17,17.0,17,1,0,1,NO
25,17,17.0,17,0,0.0,0,17,17.0,17,1,0,1,NO
26,17,17.0,17,0,0.0,0,17,17.0,17,1,0,1,NO
50,17,17.0,17,0,0.0,0,17,17.0,17,1,0,1,NO
24,17,17.0,17,0,0.0,0,17,17.0,17,1,0,1,NO
25,17,17.0,17,0,0.0,0,17,17.0,17,1,0,1,NO
26,17,17.0,17,0,0.0,0,17,17.0,17,1,0,1,NO
31,17,17.0,17,0,0.0,0,17,17.0,17,1,0,1,NO
94,17,17.0,17,0,0.0,0,17,17.0,17,1,0,1,NO
61,17,17.0,17,0,0.0,0,17,17.0,17,1,0,1,NO
96,17,17.0,17,0,0.0,0,17,17.0,17,1,0,1,NO
217,17,17.0,17,0,0.0,0,17,17.0,17,1,0,1,NO
510,17,17.0,17,0,0.0,0,17,17.0,17,1,0,1,NO
56,17,17.0,17,0,0.0,0,17,17.0,17,1,0,1,NO
69,17,17.0,17,0,0.0,0,17,17.0,17,1,0,1,NO
159,17,17.0,17,0,0.0,0,17,17.0,17,1,0,1,NO
142,17,17.0,17,0,0.0,0,17,17.0,17,1,0,1,NO
149,17,17.0,17,0,0.0,0,17,17.0,17,1,0,1,NO
139,67,9.571428571428571,45,16,2.2857142857142856,11,51,7.285714285714286,34,7,0,4,YES
100,17,17.0,17,0,0.0,0,17,17.0,17,1,0,1,NO
98,17,17.0,17,0,0.0,0,17,17.0,17,1,0,1,NO
171,17,17.0,17,0,0.0,0,17,17.0,17,1,0,1,NO
351,17,17.0,17,0,0.0,0,17,17.0,17,1,0,1,NO
37,17,17.0,17,0,0.0,0,17,17.0,17,1,0,1,NO
54,17,17.0,17,0,0.0,0,17,17.0,17,1,0,1,NO
44,17,17.0,17,0,0.0,0,17,17.0,17,1,0,1,NO
35,17,17.0,17,0,0.0,0,17,17.0,17,1,0,1,NO
24,17,17.0,17,0,0.0,0,17,17.0,17,1,0,1,NO
84,54,13.5,22,56,14.0,41,36,9.0,19,4,0,4,NO
217,355,23.666666666666668,50,158,10.533333333333333,35,203,13.533333333333333,28,15,2,7,YES
177,17,17.0,17,0,0.0,0,17,17.0,17,1,0,1,NO
59,17,17.0,17,0,0.0,0,17,17.0,17,1,0,1,NO
68,17,17.0,17,0,0.0,0,17,17.0,17,1,0,1,NO
156,17,17.0,17,0,0.0,0,17,17.0,17,1,0,1,NO
90,29,14.5,17,3,1.5,3,26,13.0,17,2,0,2,YES
43,17,17.0,17,0,0.0,0,17,17.0,17,1,0,1,NO
43,17,17.0,17,0,0.0,0,17,17.0,17,1,0,1,NO
38,17,17.0,17,0,0.0,0,17,17.0,17,1,0,1,NO
54,28,7.0,18,6,1.5,3,22,5.5,17,4,0,4,NO
64,17,17.0,17,0,0.0,0,17,17.0,17,1,0,1,NO
124,17,17.0,17,0,0.0,0,17,17.0,17,1,0,1,NO
47,17,17.0,17,0,0.0,0,17,17.0,17,1,0,1,NO
144,227,45.4,83,182,36.4,88,65,13.0,38,5,0,4,YES
58,17,17.0,17,0,0.0,0,17,17.0,17,1,0,1,NO
109,113,12.555555555555555,17,48,5.333333333333333,6,65,7.222222222222222,17,9,0,7,YES
161,17,17.0,17,0,0.0,0,17,17.0,17,1,0,1,NO
113,680,85.0,113,2,0.25,1,678,84.75,113,8,1,5,YES
452,687,21.46875,111,338,10.5625,40,415,12.96875,88,32,1,12,YES
186,17,17.0,17,0,0.0,0,17,17.0,17,1,0,1,NO
51,17,17.0,17,0,0.0,0,17,17.0,17,1,0,1,NO
375,17,17.0,17,0,0.0,0,17,17.0,17,1,0,1,NO
48,24,12.0,17,2,1.0,2,22,11.0,17,2,0,2,NO
30,17,17.0,17,0,0.0,0,17,17.0,17,1,0,1,NO
377,29,7.25,17,3,0.75,1,26,6.5,17,4,0,4,YES
40,17,17.0,17,0,0.0,0,17,17.0,17,1,0,1,NO
813,17,17.0,17,0,0.0,0,17,17.0,17,1,0,1,NO
112,31,7.75,18,5,1.25,2,26,6.5,17,4,0,4,NO
183,17,17.0,17,0,0.0,0,17,17.0,17,1,0,1,NO
32,17,17.0,17,0,0.0,0,17,17.0,17,1,0,1,NO
32,17,17.0,17,0,0.0,0,17,17.0,17,1,0,1,NO
26,17,17.0,17,0,0.0,0,17,17.0,17,1,0,1,NO
174,17,17.0,17,0,0.0,0,17,17.0,17,1,0,1,NO
31,17,17.0,17,0,0.0,0,17,17.0,17,1,0,1,NO
24,17,17.0,17,0,0.0,0,17,17.0,17,1,0,1,NO
34,17,17.0,17,0,0.0,0,17,17.0,17,1,0,1,NO
123,17,17.0,17,0,0.0,0,17,17.0,17,1,0,1,NO
87,17,17.0,17,0,0.0,0,17,17.0,17,1,0,1,NO
26,17,17.0,17,0,0.0,0,17,17.0,17,1,0,1,NO
25,17,17.0,17,0,0.0,0,17,17.0,17,1,0,1,NO
23,17,17.0,17,0,0.0,0,17,17.0,17,1,0,1,NO
23,17,17.0,17,0,0.0,0,17,17.0,17,1,0,1,NO
23,17,17.0,17,0,0.0,0,17,17.0,17,1,0,1,NO
33,17,17.0,17,0,0.0,0,17,17.0,17,1,0,1,NO
32,17,17.0,17,0,0.0,0,17,17.0,17,1,0,1,NO
29,17,17.0,17,0,0.0,0,17,17.0,17,1,0,1,NO
22,17,17.0,17,0,0.0,0,17,17.0,17,1,0,1,NO
25,17,17.0,17,0,0.0,0,17,17.0,17,1,0,1,NO
24,17,17.0,17,0,0.0,0,17,17.0,17,1,0,1,NO
31,17,17.0,17,0,0.0,0,17,17.0,17,1,0,1,NO
31,17,17.0,17,0,0.0,0,17,17.0,17,1,0,1,NO
26,17,17.0,17,0,0.0,0,17,17.0,17,1,0,1,NO
26,17,17.0,17,0,0.0,0,17,17.0,17,1,0,1,NO
26,17,17.0,17,0,0.0,0,17,17.0,17,1,0,1,NO
36,17,17.0,17,0,0.0,0,17,17.0,17,1,0,1,NO
65,17,17.0,17,0,0.0,0,17,17.0,17,1,0,1,NO
41,17,17.0,17,0,0.0,0,17,17.0,17,1,0,1,NO
39,17,17.0,17,0,0.0,0,17,17.0,17,1,0,1,NO
38,17,17.0,17,0,0.0,0,17,17.0,17,1,0,1,NO
31,17,17.0,17,0,0.0,0,17,17.0,17,1,0,1,NO
125,17,17.0,17,0,0.0,0,17,17.0,17,1,0,1,NO
38,17,17.0,17,0,0.0,0,17,17.0,17,1,0,1,NO
48,17,17.0,17,0,0.0,0,17,17.0,17,1,0,1,NO
44,17,17.0,17,0,0.0,0,17,17.0,17,1,0,1,NO
42,17,17.0,17,0,0.0,0,17,17.0,17,1,0,1,NO
46,17,17.0,17,0,0.0,0,17,17.0,17,1,0,1,NO
42,17,17.0,17,0,0.0,0,17,17.0,17,1,0,1,NO
113,17,17.0,17,0,0.0,0,17,17.0,17,1,0,1,NO
53,17,17.0,17,0,0.0,0,17,17.0,17,1,0,1,NO
56,17,17.0,17,0,0.0,0,17,17.0,17,1,0,1,NO
61,17,17.0,17,0,0.0,0,17,17.0,17,1,0,1,NO
49,17,17.0,17,0,0.0,0,17,17.0,17,1,0,1,NO
53,17,17.0,17,0,0.0,0,17,17.0,17,1,0,1,NO
29,17,17.0,17,0,0.0,0,17,17.0,17,1,0,1,NO
48,17,17.0,17,0,0.0,0,17,17.0,17,1,0,1,NO
96,17,17.0,17,0,0.0,0,17,17.0,17,1,0,1,NO
95,17,17.0,17,0,0.0,0,17,17.0,17,1,0,1,NO
51,17,17.0,17,0,0.0,0,17,17.0,17,1,0,1,NO
29,17,17.0,17,0,0.0,0,17,17.0,17,1,0,1,NO
159,17,17.0,17,0,0.0,0,17,17.0,17,1,0,1,NO
53,17,17.0,17,0,0.0,0,17,17.0,17,1,0,1,NO
56,17,17.0,17,0,0.0,0,17,17.0,17,1,0,1,NO
27,17,17.0,17,0,0.0,0,17,17.0,17,1,0,1,NO
95,17,17.0,17,0,0.0,0,17,17.0,17,1,0,1,NO
40,17,17.0,17,0,0.0,0,17,17.0,17,1,0,1,NO
45,17,17.0,17,0,0.0,0,17,17.0,17,1,0,1,NO
61,17,17.0,17,0,0.0,0,17,17.0,17,1,0,1,NO
53,17,17.0,17,0,0.0,0,17,17.0,17,1,0,1,NO
38,17,17.0,17,0,0.0,0,17,17.0,17,1,0,1,NO
64,17,17.0,17,0,0.0,0,17,17.0,17,1,0,1,NO
31,17,17.0,17,0,0.0,0,17,17.0,17,1,0,1,NO
52,17,17.0,17,0,0.0,0,17,17.0,17,1,0,1,NO
29,17,17.0,17,0,0.0,0,17,17.0,17,1,0,1,NO
33,17,17.0,17,0,0.0,0,17,17.0,17,1,0,1,NO
39,17,17.0,17,0,0.0,0,17,17.0,17,1,0,1,NO
218,17,17.0,17,0,0.0,0,17,17.0,17,1,0,1,NO
40,17,17.0,17,0,0.0,0,17,17.0,17,1,0,1,NO
27,17,17.0,17,0,0.0,0,17,17.0,17,1,0,1,NO
84,17,17.0,17,0,0.0,0,17,17.0,17,1,0,1,NO
62,17,17.0,17,0,0.0,0,17,17.0,17,1,0,1,NO
80,17,17.0,17,0,0.0,0,17,17.0,17,1,0,1,NO
59,17,17.0,17,0,0.0,0,17,17.0,17,1,0,1,NO
93,17,17.0,17,0,0.0,0,17,17.0,17,1,0,1,NO
107,17,17.0,17,0,0.0,0,17,17.0,17,1,0,1,NO
73,17,17.0,17,0,0.0,0,17,17.0,17,1,0,1,NO
106,17,17.0,17,0,0.0,0,17,17.0,17,1,0,1,NO
76,17,17.0,17,0,0.0,0,17,17.0,17,1,0,1,NO
92,17,17.0,17,0,0.0,0,17,17.0,17,1,0,1,NO
24,17,17.0,17,0,0.0,0,17,17.0,17,1,0,1,NO
33,17,17.0,17,0,0.0,0,17,17.0,17,1,0,1,NO
31,17,17.0,17,0,0.0,0,17,17.0,17,1,0,1,NO
62,17,17.0,17,0,0.0,0,17,17.0,17,1,0,1,NO
77,17,17.0,17,0,0.0,0,17,17.0,17,1,0,1,NO
25,17,17.0,17,0,0.0,0,17,17.0,17,1,0,1,NO
94,17,17.0,17,0,0.0,0,17,17.0,17,1,0,1,NO
201,17,17.0,17,0,0.0,0,17,17.0,17,1,0,1,NO
171,17,17.0,17,0,0.0,0,17,17.0,17,1,0,1,NO
198,17,17.0,17,0,0.0,0,17,17.0,17,1,0,1,NO
49,17,17.0,17,0,0.0,0,17,17.0,17,1,0,1,NO
38,17,17.0,17,0,0.0,0,17,17.0,17,1,0,1,NO
178,24,3.0,17,0,0.0,0,24,3.0,17,8,0,7,YES
94,17,17.0,17,0,0.0,0,17,17.0,17,1,0,1,NO
138,17,17.0,17,0,0.0,0,17,17.0,17,1,0,1,NO
25,17,17.0,17,0,0.0,0,17,17.0,17,1,0,1,NO
25,17,17.0,17,0,0.0,0,17,17.0,17,1,0,1,NO
36,17,17.0,17,0,0.0,0,17,17.0,17,1,0,1,NO
26,17,17.0,17,0,0.0,0,17,17.0,17,1,0,1,NO
44,17,17.0,17,0,0.0,0,17,17.0,17,1,0,1,NO
52,17,17.0,17,0,0.0,0,17,17.0,17,1,0,1,NO
50,17,17.0,17,0,0.0,0,17,17.0,17,1,0,1,NO
75,17,17.0,17,0,0.0,0,17,17.0,17,1,0,1,NO
28,17,17.0,17,0,0.0,0,17,17.0,17,1,0,1,NO
31,17,17.0,17,0,0.0,0,17,17.0,17,1,0,1,NO
41,17,17.0,17,0,0.0,0,17,17.0,17,1,0,1,NO
26,17,17.0,17,0,0.0,0,17,17.0,17,1,0,1,NO
39,17,17.0,17,0,0.0,0,17,17.0,17,1,0,1,NO
26,17,17.0,17,0,0.0,0,17,17.0,17,1,0,1,NO
30,17,17.0,17,0,0.0,0,17,17.0,17,1,0,1,NO
25,17,17.0,17,0,0.0,0,17,17.0,17,1,0,1,NO
33,17,17.0,17,0,0.0,0,17,17.0,17,1,0,1,NO
44,17,17.0,17,0,0.0,0,17,17.0,17,1,0,1,NO
23,17,17.0,17,0,0.0,0,17,17.0,17,1,0,1,NO
80,17,17.0,17,0,0.0,0,17,17.0,17,1,0,1,NO
79,17,17.0,17,0,0.0,0,17,17.0,17,1,0,1,NO
26,17,17.0,17,0,0.0,0,17,17.0,17,1,0,1,NO
83,17,17.0,17,0,0.0,0,17,17.0,17,1,0,1,NO
92,17,17.0,17,0,0.0,0,17,17.0,17,1,0,1,NO
26,17,17.0,17,0,0.0,0,17,17.0,17,1,0,1,NO
85,17,17.0,17,0,0.0,0,17,17.0,17,1,0,1,NO
67,17,17.0,17,0,0.0,0,17,17.0,17,1,0,1,NO
124,57,6.333333333333333,17,8,0.8888888888888888,1,49,5.444444444444445,17,9,0,6,YES
26,17,17.0,17,0,0.0,0,17,17.0,17,1,0,1,NO
25,115,10.454545454545455,17,0,0.0,0,115,10.454545454545455,17,11,0,7,YES
76,17,17.0,17,0,0.0,0,17,17.0,17,1,0,1,NO
109,17,17.0,17,0,0.0,0,17,17.0,17,1,0,1,NO
24,17,17.0,17,0,0.0,0,17,17.0,17,1,0,1,NO
27,17,17.0,17,0,0.0,0,17,17.0,17,1,0,1,NO
47,17,17.0,17,0,0.0,0,17,17.0,17,1,0,1,NO
185,17,17.0,17,0,0.0,0,17,17.0,17,1,0,1,NO
96,17,17.0,17,0,0.0,0,17,17.0,17,1,0,1,NO
97,17,17.0,17,0,0.0,0,17,17.0,17,1,0,1,NO
23,17,17.0,17,0,0.0,0,17,17.0,17,1,0,1,NO
154,17,17.0,17,0,0.0,0,17,17.0,17,1,0,1,NO
47,17,17.0,17,0,0.0,0,17,17.0,17,1,0,1,NO
176,225,25.0,26,8,0.8888888888888888,1,217,24.11111111111111,25,9,0,6,YES
166,17,17.0,17,0,0.0,0,17,17.0,17,1,0,1,NO
36,17,17.0,17,0,0.0,0,17,17.0,17,1,0,1,NO
32,17,17.0,17,0,0.0,0,17,17.0,17,1,0,1,NO
30,17,17.0,17,0,0.0,0,17,17.0,17,1,0,1,NO
37,17,17.0,17,0,0.0,0,17,17.0,17,1,0,1,NO
33,17,17.0,17,0,0.0,0,17,17.0,17,1,0,1,NO
32,17,17.0,17,0,0.0,0,17,17.0,17,1,0,1,NO
289,29,7.25,17,0,0.0,0,29,7.25,17,4,0,4,YES
66,17,17.0,17,0,0.0,0,17,17.0,17,1,0,1,NO
425,17,17.0,17,0,0.0,0,17,17.0,17,1,0,1,NO
722,17,17.0,17,0,0.0,0,17,17.0,17,1,0,1,NO
147,17,17.0,17,0,0.0,0,17,17.0,17,1,0,1,NO
135,69,9.857142857142858,47,16,2.2857142857142856,11,53,7.571428571428571,36,7,0,4,YES
92,17,17.0,17,0,0.0,0,17,17.0,17,1,0,1,NO
44,17,17.0,17,0,0.0,0,17,17.0,17,1,0,1,NO
72,17,17.0,17,0,0.0,0,17,17.0,17,1,0,1,NO
328,17,17.0,17,0,0.0,0,17,17.0,17,1,0,1,NO
61,17,17.0,17,0,0.0,0,17,17.0,17,1,0,1,NO
28,17,17.0,17,0,0.0,0,17,17.0,17,1,0,1,NO
50,17,17.0,17,0,0.0,0,17,17.0,17,1,0,1,NO
35,17,17.0,17,0,0.0,0,17,17.0,17,1,0,1,NO
142,77,11.0,21,20,2.857142857142857,4,57,8.142857142857142,17,7,0,5,YES
153,770,110.0,154,4,0.5714285714285714,3,768,109.71428571428571,154,7,1,4,YES
78,156,78.0,78,0,0.0,0,156,78.0,78,2,1,1,YES
87,174,87.0,87,0,0.0,0,174,87.0,87,2,1,1,YES
68,136,68.0,68,0,0.0,0,136,68.0,68,2,1,1,YES
58,124,20.666666666666668,58,8,1.3333333333333333,2,116,19.333333333333332,58,6,3,4,YES
196,392,196.0,196,0,0.0,0,392,196.0,196,2,1,1,YES
132,496,82.66666666666667,132,16,2.6666666666666665,4,480,80.0,132,6,1,5,YES
64,128,64.0,64,0,0.0,0,128,64.0,64,2,1,1,YES
173,346,173.0,173,0,0.0,0,346,173.0,173,2,1,1,YES
246,492,246.0,246,0,0.0,0,492,246.0,246,2,1,1,YES
107,214,107.0,107,0,0.0,0,214,107.0,107,2,1,1,YES
121,1210,121.0,121,0,0.0,0,1210,121.0,121,10,1,5,YES
110,221,73.66666666666667,110,2,0.6666666666666666,2,221,73.66666666666667,110,3,1,2,YES
58,116,58.0,58,0,0.0,0,116,58.0,58,2,1,1,YES
37,74,37.0,37,0,0.0,0,74,37.0,37,2,1,1,YES
142,285,95.0,142,2,0.6666666666666666,2,285,95.0,142,3,1,2,YES
114,228,114.0,114,0,0.0,0,228,114.0,114,2,1,1,YES
59,118,59.0,59,0,0.0,0,118,59.0,59,2,1,1,YES
64,128,64.0,64,0,0.0,0,128,64.0,64,2,1,1,YES
164,328,164.0,164,0,0.0,0,328,164.0,164,2,1,1,YES
70,140,70.0,70,0,0.0,0,140,70.0,70,2,1,1,YES
32,64,32.0,32,0,0.0,0,64,32.0,32,2,1,1,YES
148,296,148.0,148,0,0.0,0,296,148.0,148,2,1,1,YES
156,312,156.0,156,0,0.0,0,312,156.0,156,2,1,1,YES
119,238,119.0,119,0,0.0,0,238,119.0,119,2,1,1,YES
118,236,118.0,118,0,0.0,0,236,118.0,118,2,1,1,YES
156,312,156.0,156,0,0.0,0,312,156.0,156,2,1,1,YES
85,170,85.0,85,0,0.0,0,170,85.0,85,2,1,1,YES
48,140,11.666666666666666,47,6,0.5,1,134,11.166666666666666,47,12,1,8,YES
33,66,33.0,33,0,0.0,0,66,33.0,33,2,1,1,YES
146,292,146.0,146,0,0.0,0,292,146.0,146,2,1,1,YES
113,226,113.0,113,0,0.0,0,226,113.0,113,2,1,1,YES
147,294,147.0,147,0,0.0,0,294,147.0,147,2,1,1,YES
40,80,40.0,40,0,0.0,0,80,40.0,40,2,1,1,YES
125,250,125.0,125,0,0.0,0,250,125.0,125,2,1,1,YES
252,504,252.0,252,0,0.0,0,504,252.0,252,2,1,1,YES
368,736,368.0,368,0,0.0,0,736,368.0,368,2,1,1,YES
106,212,106.0,106,0,0.0,0,212,106.0,106,2,1,1,YES
181,362,181.0,181,0,0.0,0,362,181.0,181,2,1,1,YES
69,414,69.0,69,0,0.0,0,414,69.0,69,6,0,5,NO
77,462,77.0,77,0,0.0,0,462,77.0,77,6,0,5,NO
83,505,38.84615384615385,83,7,0.5384615384615384,1,498,38.30769230769231,83,13,1,7,YES
48,288,48.0,48,0,0.0,0,288,48.0,48,6,0,5,NO
85,510,85.0,85,0,0.0,0,510,85.0,85,6,0,5,NO
43,271,20.846153846153847,43,7,0.5384615384615384,1,264,20.307692307692307,43,13,1,7,YES
90,540,90.0,90,0,0.0,0,540,90.0,90,6,0,5,NO
202,1212,202.0,202,0,0.0,0,1212,202.0,202,6,0,5,NO
135,810,135.0,135,0,0.0,0,810,135.0,135,6,0,5,NO
30,180,30.0,30,0,0.0,0,180,30.0,30,6,0,5,NO
29,174,29.0,29,0,0.0,0,174,29.0,29,6,0,5,NO
69,414,69.0,69,0,0.0,0,414,69.0,69,6,0,5,NO
52,312,52.0,52,0,0.0,0,312,52.0,52,6,0,5,NO
89,534,89.0,89,0,0.0,0,534,89.0,89,6,0,5,NO
31,204,29.142857142857142,31,0,0.0,0,204,29.142857142857142,31,7,0,5,NO
233,1415,202.14285714285714,233,0,0.0,0,1415,202.14285714285714,233,7,0,5,NO
40,240,40.0,40,0,0.0,0,240,40.0,40,6,0,5,NO
164,1004,77.23076923076923,164,14,1.0769230769230769,2,990,76.15384615384616,164,13,1,7,YES
40,240,40.0,40,0,0.0,0,240,40.0,40,6,0,5,NO
32,192,32.0,32,0,0.0,0,192,32.0,32,6,0,5,NO
139,450,112.5,139,9,2.25,9,441,110.25,139,4,1,3,NO
131,405,101.25,131,10,2.5,10,395,98.75,131,4,1,3,NO
149,459,114.75,149,8,2.0,8,451,112.75,149,4,1,3,NO
86,258,86.0,86,0,0.0,0,258,86.0,86,3,1,3,NO
52,173,43.25,52,0,0.0,0,173,43.25,52,4,1,3,NO
88,264,88.0,88,0,0.0,0,264,88.0,88,3,1,3,NO
42,126,42.0,42,0,0.0,0,126,42.0,42,3,1,3,NO
32,96,32.0,32,0,0.0,0,96,32.0,32,3,1,3,NO
40,137,34.25,40,0,0.0,0,137,34.25,40,4,1,3,NO
51,153,51.0,51,0,0.0,0,153,51.0,51,3,1,3,NO
81,243,81.0,81,0,0.0,0,243,81.0,81,3,1,3,NO
35,105,35.0,35,0,0.0,0,105,35.0,35,3,1,3,NO
55,237,47.4,55,0,0.0,0,237,47.4,55,5,1,3,NO
46,138,46.0,46,0,0.0,0,138,46.0,46,3,1,3,NO
46,138,46.0,46,0,0.0,0,138,46.0,46,3,1,3,NO
27,98,24.5,27,0,0.0,0,98,24.5,27,4,1,3,NO
12,53,13.25,17,0,0.0,0,53,13.25,17,4,1,3,NO
48,146,36.5,48,2,0.5,2,144,36.0,48,4,1,3,NO
317,1024,204.8,317,32,6.4,32,992,198.4,317,5,1,3,NO
29,104,26.0,29,0,0.0,0,104,26.0,29,4,1,3,NO
14,59,14.75,17,0,0.0,0,59,14.75,17,4,1,3,NO
83,249,83.0,83,0,0.0,0,249,83.0,83,3,1,3,NO
54,179,44.75,54,0,0.0,0,179,44.75,54,4,1,3,NO
83,249,83.0,83,0,0.0,0,249,83.0,83,3,1,3,NO
40,120,40.0,40,0,0.0,0,120,40.0,40,3,1,3,NO
32,96,32.0,32,0,0.0,0,96,32.0,32,3,1,3,NO
40,137,34.25,40,0,0.0,0,137,34.25,40,4,1,3,NO
50,150,50.0,50,0,0.0,0,150,50.0,50,3,1,3,NO
81,243,81.0,81,0,0.0,0,243,81.0,81,3,1,3,NO
35,105,35.0,35,0,0.0,0,105,35.0,35,3,1,3,NO
54,233,46.6,54,0,0.0,0,233,46.6,54,5,1,3,NO
46,138,46.0,46,0,0.0,0,138,46.0,46,3,1,3,NO
46,138,46.0,46,0,0.0,0,138,46.0,46,3,1,3,NO
86,221,24.555555555555557,86,14,1.5555555555555556,2,207,23.0,86,9,1,6,YES
25,50,25.0,25,0,0.0,0,50,25.0,25,2,1,1,YES
152,321,22.928571428571427,147,7,0.5,1,314,22.428571428571427,147,14,2,7,YES
94,188,94.0,94,0,0.0,0,188,94.0,94,2,1,1,YES
29,58,29.0,29,0,0.0,0,58,29.0,29,2,1,1,YES
52,111,12.333333333333334,52,7,0.7777777777777778,1,104,11.555555555555555,52,9,4,8,YES
43,86,43.0,43,0,0.0,0,86,43.0,43,2,1,1,YES
195,390,195.0,195,0,0.0,0,390,195.0,195,2,1,1,YES
243,827,35.95652173913044,243,353,15.347826086956522,34,536,23.304347826086957,243,23,3,12,YES
28,56,28.0,28,0,0.0,0,56,28.0,28,2,1,1,YES
37,74,37.0,37,0,0.0,0,74,37.0,37,2,1,1,YES
69,187,20.77777777777778,69,14,1.5555555555555556,2,173,19.22222222222222,69,9,1,6,YES
28,56,28.0,28,0,0.0,0,56,28.0,28,2,1,1,YES
273,982,28.88235294117647,265,230,6.764705882352941,132,998,29.352941176470587,265,34,3,11,YES
36,101,9.181818181818182,36,12,1.0909090909090908,3,95,8.636363636363637,36,11,1,3,YES
51,102,51.0,51,0,0.0,0,102,51.0,51,2,1,1,YES
38,76,38.0,38,0,0.0,0,76,38.0,38,2,1,1,YES
52,104,52.0,52,0,0.0,0,104,52.0,52,2,1,1,YES
37,74,37.0,37,0,0.0,0,74,37.0,37,2,1,1,YES
46,92,46.0,46,0,0.0,0,92,46.0,46,2,1,1,YES
5,77,5.923076923076923,17,10,0.7692307692307693,5,87,6.6923076923076925,17,13,1,7,YES
113,226,113.0,113,0,0.0,0,226,113.0,113,2,1,1,YES
36,72,36.0,36,0,0.0,0,72,36.0,36,2,1,1,YES
116,232,116.0,116,0,0.0,0,232,116.0,116,2,1,1,YES
116,342,26.307692307692307,89,51,3.923076923076923,11,291,22.384615384615383,89,13,2,5,YES
48,194,38.8,48,2,0.4,2,192,38.4,48,5,1,3,NO
32,128,32.0,32,0,0.0,0,128,32.0,32,4,1,3,NO
34,141,28.2,37,5,1.0,5,142,28.4,37,5,1,3,NO
26,108,18.0,26,4,0.6666666666666666,3,108,18.0,26,6,1,3,NO
50,100,50.0,50,0,0.0,0,100,50.0,50,2,1,1,YES
31,62,31.0,31,0,0.0,0,62,31.0,31,2,1,1,YES
98,196,98.0,98,0,0.0,0,196,98.0,98,2,1,1,YES
26,52,26.0,26,0,0.0,0,52,26.0,26,2,1,1,YES
25,50,25.0,25,0,0.0,0,50,25.0,25,2,1,1,YES
40,80,40.0,40,0,0.0,0,80,40.0,40,2,1,1,YES
59,118,59.0,59,0,0.0,0,118,59.0,59,2,1,1,YES
36,72,36.0,36,0,0.0,0,72,36.0,36,2,1,1,YES
58,116,58.0,58,0,0.0,0,116,58.0,58,2,1,1,YES
37,74,37.0,37,0,0.0,0,74,37.0,37,2,1,1,YES
268,536,268.0,268,0,0.0,0,536,268.0,268,2,1,1,YES
99,420,52.5,99,24,3.0,14,402,50.25,99,8,1,3,NO
57,235,39.166666666666664,57,7,1.1666666666666667,4,228,38.0,57,6,1,3,NO
31,124,24.8,31,0,0.0,0,124,24.8,31,5,1,3,NO
70,140,70.0,70,0,0.0,0,140,70.0,70,2,1,1,YES
41,164,41.0,41,0,0.0,0,164,41.0,41,4,1,3,NO
28,112,28.0,28,0,0.0,0,112,28.0,28,4,1,3,NO
34,141,28.2,37,5,1.0,5,142,28.4,37,5,1,3,NO
26,109,18.166666666666668,27,5,0.8333333333333334,4,110,18.333333333333332,27,6,1,3,NO
72,0,0.0,0,0,0.0,0,0,0.0,0,0,0,0,NO
1424,4211,79.45283018867924,459,1509,28.471698113207548,133,2796,52.75471698113208,381,53,7,15,YES
345,1568,98.0,139,114,7.125,19,1454,90.875,120,16,2,10,YES
36,12,2.0,2,6,1.0,1,6,1.0,1,6,0,4,NO
32,192,32.0,32,0,0.0,0,192,32.0,32,6,0,4,NO
49,12,2.0,2,0,0.0,0,12,2.0,2,6,0,4,NO
27,0,0.0,0,0,0.0,0,0,0.0,0,0,0,0,NO
423,1264,74.3529411764706,154,218,12.823529411764707,29,1046,61.529411764705884,132,17,3,7,YES
119,0,0.0,0,0,0.0,0,0,0.0,0,0,0,0,NO
153,0,0.0,0,0,0.0,0,0,0.0,0,0,0,0,NO
51,0,0.0,0,0,0.0,0,0,0.0,0,0,0,0,NO
51,0,0.0,0,0,0.0,0,0,0.0,0,0,0,0,NO
108,0,0.0,0,0,0.0,0,0,0.0,0,0,0,0,NO
46,0,0.0,0,0,0.0,0,0,0.0,0,0,0,0,NO
53,0,0.0,0,0,0.0,0,0,0.0,0,0,0,0,NO
436,0,0.0,0,0,0.0,0,0,0.0,0,0,0,0,NO
382,0,0.0,0,0,0.0,0,0,0.0,0,0,0,0,NO
30,0,0.0,0,0,0.0,0,0,0.0,0,0,0,0,NO
22,0,0.0,0,0,0.0,0,0,0.0,0,0,0,0,NO
108,324,54.0,54,222,37.0,37,102,17.0,17,6,0,4,NO
253,552,92.0,92,48,8.0,8,504,84.0,84,6,0,4,NO
75,0,0.0,0,0,0.0,0,0,0.0,0,0,0,0,NO
93,0,0.0,0,0,0.0,0,0,0.0,0,0,0,0,NO
49,0,0.0,0,0,0.0,0,0,0.0,0,0,0,0,NO
383,0,0.0,0,0,0.0,0,0,0.0,0,0,0,0,NO
59,0,0.0,0,0,0.0,0,0,0.0,0,0,0,0,NO
124,192,32.0,32,18,3.0,3,174,29.0,29,6,0,4,NO
344,0,0.0,0,0,0.0,0,0,0.0,0,0,0,0,NO
344,2070,345.0,345,0,0.0,0,2070,345.0,345,6,0,4,NO
443,0,0.0,0,0,0.0,0,0,0.0,0,0,0,0,NO
1127,0,0.0,0,0,0.0,0,0,0.0,0,0,0,0,NO
614,0,0.0,0,0,0.0,0,0,0.0,0,0,0,0,NO
723,0,0.0,0,0,0.0,0,0,0.0,0,0,0,0,NO
402,0,0.0,0,0,0.0,0,0,0.0,0,0,0,0,NO
389,2340,390.0,390,0,0.0,0,2340,390.0,390,6,0,4,NO
344,0,0.0,0,0,0.0,0,0,0.0,0,0,0,0,NO
441,0,0.0,0,0,0.0,0,0,0.0,0,0,0,0,NO
1079,624,104.0,104,36,6.0,6,588,98.0,98,6,0,4,NO
2346,1998,333.0,333,114,19.0,19,1884,314.0,314,6,0,4,NO
625,558,186.0,186,6,2.0,2,552,184.0,184,3,1,2,YES
436,0,0.0,0,0,0.0,0,0,0.0,0,0,0,0,NO
335,0,0.0,0,0,0.0,0,0,0.0,0,0,0,0,NO
695,0,0.0,0,0,0.0,0,0,0.0,0,0,0,0,NO
824,0,0.0,0,0,0.0,0,0,0.0,0,0,0,0,NO
441,0,0.0,0,0,0.0,0,0,0.0,0,0,0,0,NO
679,0,0.0,0,0,0.0,0,0,0.0,0,0,0,0,NO
344,0,0.0,0,0,0.0,0,0,0.0,0,0,0,0,NO
479,0,0.0,0,0,0.0,0,0,0.0,0,0,0,0,NO
549,0,0.0,0,0,0.0,0,0,0.0,0,0,0,0,NO
336,0,0.0,0,0,0.0,0,0,0.0,0,0,0,0,NO
16276,17286,2881.0,2881,678,113.0,113,16608,2768.0,2768,6,0,4,NO
344,0,0.0,0,0,0.0,0,0,0.0,0,0,0,0,NO
241,0,0.0,0,0,0.0,0,0,0.0,0,0,0,0,NO
565,0,0.0,0,0,0.0,0,0,0.0,0,0,0,0,NO
433,0,0.0,0,0,0.0,0,0,0.0,0,0,0,0,NO
443,0,0.0,0,0,0.0,0,0,0.0,0,0,0,0,NO
772,0,0.0,0,0,0.0,0,0,0.0,0,0,0,0,NO
443,0,0.0,0,0,0.0,0,0,0.0,0,0,0,0,NO
676,0,0.0,0,0,0.0,0,0,0.0,0,0,0,0,NO
478,0,0.0,0,0,0.0,0,0,0.0,0,0,0,0,NO
452,582,97.0,97,6,1.0,1,576,96.0,96,6,0,4,NO
722,0,0.0,0,0,0.0,0,0,0.0,0,0,0,0,NO
1124,1146,191.0,191,6,1.0,1,1140,190.0,190,6,0,4,NO
61,0,0.0,0,0,0.0,0,0,0.0,0,0,0,0,NO
1101,1146,191.0,191,6,1.0,1,1140,190.0,190,6,0,4,NO
43,0,0.0,0,0,0.0,0,0,0.0,0,0,0,0,NO
61,0,0.0,0,0,0.0,0,0,0.0,0,0,0,0,NO
38,0,0.0,0,0,0.0,0,0,0.0,0,0,0,0,NO
32,0,0.0,0,0,0.0,0,0,0.0,0,0,0,0,NO
32,0,0.0,0,0,0.0,0,0,0.0,0,0,0,0,NO
32,0,0.0,0,0,0.0,0,0,0.0,0,0,0,0,NO
35,0,0.0,0,0,0.0,0,0,0.0,0,0,0,0,NO
30,0,0.0,0,0,0.0,0,0,0.0,0,0,0,0,NO
30,0,0.0,0,0,0.0,0,0,0.0,0,0,0,0,NO
49,26,13.0,13,4,2.0,2,22,11.0,11,2,1,1,YES
59,0,0.0,0,0,0.0,0,0,0.0,0,0,0,0,NO
53,0,0.0,0,0,0.0,0,0,0.0,0,0,0,0,NO
57,0,0.0,0,0,0.0,0,0,0.0,0,0,0,0,NO
384,953,30.741935483870968,239,468,15.096774193548388,105,619,19.967741935483872,134,31,5,11,YES
112,102,51.0,51,12,6.0,6,90,45.0,45,2,1,1,YES
71,29,3.2222222222222223,4,11,1.2222222222222223,2,18,2.0,2,9,2,6,YES
136,20,10.0,10,84,42.0,42,64,32.0,32,2,1,1,YES
145,357,39.666666666666664,70,87,9.666666666666666,40,270,30.0,30,9,2,6,YES
43,28,4.0,4,0,0.0,0,28,4.0,4,7,1,5,YES
52,122,40.666666666666664,52,1,0.3333333333333333,1,121,40.333333333333336,52,3,1,2,YES
99,755,94.375,100,62,7.75,62,695,86.875,100,8,1,5,YES
166,1282,142.44444444444446,167,120,13.333333333333334,115,1164,129.33333333333334,167,9,1,5,YES
31,217,31.0,31,0,0.0,0,217,31.0,31,7,1,5,YES
165,1176,147.0,168,21,2.625,21,1161,145.125,168,8,1,5,YES
31,217,31.0,31,0,0.0,0,217,31.0,31,7,1,5,YES
158,1227,136.33333333333334,159,121,13.444444444444445,107,1114,123.77777777777777,159,9,1,5,YES
83,581,83.0,83,0,0.0,0,581,83.0,83,7,1,5,YES
155,1207,134.11111111111111,159,122,13.555555555555555,107,1093,121.44444444444444,159,9,1,5,YES
74,560,56.0,74,42,4.2,38,520,52.0,74,10,1,5,YES
301,774,48.375,127,209,13.0625,24,565,35.3125,107,16,3,8,YES
41,82,41.0,41,0,0.0,0,82,41.0,41,2,1,1,YES
54,102,10.2,20,32,3.2,18,78,7.8,14,10,2,6,YES
66,42,5.25,18,50,6.25,22,8,1.0,4,8,1,4,YES
57,139,17.375,24,55,6.875,24,94,11.75,17,8,1,5,YES
72,0,0.0,0,0,0.0,0,0,0.0,0,0,0,0,NO
64,0,0.0,0,0,0.0,0,0,0.0,0,0,0,0,NO
155,0,0.0,0,0,0.0,0,0,0.0,0,0,0,0,NO
34,0,0.0,0,0,0.0,0,0,0.0,0,0,0,0,NO
38,0,0.0,0,0,0.0,0,0,0.0,0,0,0,0,NO
41,0,0.0,0,0,0.0,0,0,0.0,0,0,0,0,NO
23,0,0.0,0,0,0.0,0,0,0.0,0,0,0,0,NO
22,0,0.0,0,0,0.0,0,0,0.0,0,0,0,0,NO
60,0,0.0,0,0,0.0,0,0,0.0,0,0,0,0,NO
24,0,0.0,0,0,0.0,0,0,0.0,0,0,0,0,NO
22,0,0.0,0,0,0.0,0,0,0.0,0,0,0,0,NO
55,0,0.0,0,0,0.0,0,0,0.0,0,0,0,0,NO
45,0,0.0,0,0,0.0,0,0,0.0,0,0,0,0,NO
50,0,0.0,0,0,0.0,0,0,0.0,0,0,0,0,NO
38,0,0.0,0,0,0.0,0,0,0.0,0,0,0,0,NO
31,0,0.0,0,0,0.0,0,0,0.0,0,0,0,0,NO
30,270,30.0,30,0,0.0,0,270,30.0,30,9,1,6,YES
31,279,31.0,31,0,0.0,0,279,31.0,31,9,1,6,YES
38,342,38.0,38,0,0.0,0,342,38.0,38,9,1,6,YES
31,279,31.0,31,0,0.0,0,279,31.0,31,9,1,6,YES
32,288,32.0,32,0,0.0,0,288,32.0,32,9,1,6,YES
80,177,59.0,80,0,0.0,0,177,59.0,80,3,1,2,YES
82,181,60.333333333333336,82,0,0.0,0,181,60.333333333333336,82,3,1,2,YES
202,565,26.904761904761905,194,18,0.8571428571428571,3,547,26.047619047619047,194,21,5,13,YES
40,97,32.333333333333336,40,0,0.0,0,97,32.333333333333336,40,3,1,2,YES
185,742,41.22222222222222,168,0,0.0,0,742,41.22222222222222,168,18,5,11,YES
51,119,39.666666666666664,51,0,0.0,0,119,39.666666666666664,51,3,1,2,YES
31,0,0.0,0,0,0.0,0,0,0.0,0,0,0,0,NO
28,0,0.0,0,0,0.0,0,0,0.0,0,0,0,0,NO
25,0,0.0,0,0,0.0,0,0,0.0,0,0,0,0,NO
25,0,0.0,0,0,0.0,0,0,0.0,0,0,0,0,NO
33,0,0.0,0,0,0.0,0,0,0.0,0,0,0,0,NO
448,78,13.0,13,0,0.0,0,78,13.0,13,6,0,4,NO
54,0,0.0,0,0,0.0,0,0,0.0,0,0,0,0,NO
39,0,0.0,0,0,0.0,0,0,0.0,0,0,0,0,NO
40,0,0.0,0,0,0.0,0,0,0.0,0,0,0,0,NO
45,0,0.0,0,0,0.0,0,0,0.0,0,0,0,0,NO
58,0,0.0,0,0,0.0,0,0,0.0,0,0,0,0,NO
110,0,0.0,0,0,0.0,0,0,0.0,0,0,0,0,NO
89,0,0.0,0,0,0.0,0,0,0.0,0,0,0,0,NO
57,0,0.0,0,0,0.0,0,0,0.0,0,0,0,0,NO
89,0,0.0,0,0,0.0,0,0,0.0,0,0,0,0,NO
52,0,0.0,0,0,0.0,0,0,0.0,0,0,0,0,NO
219,1314,219.0,219,0,0.0,0,1314,219.0,219,6,0,4,NO
125,750,125.0,125,0,0.0,0,750,125.0,125,6,0,4,NO
346,2076,346.0,346,0,0.0,0,2076,346.0,346,6,0,4,NO
98,588,98.0,98,0,0.0,0,588,98.0,98,6,0,4,NO
343,2088,261.0,343,10,1.25,5,2078,259.75,343,8,0,6,NO
296,1776,296.0,296,0,0.0,0,1776,296.0,296,6,0,4,NO
47,377,41.888888888888886,47,1,0.1111111111111111,1,376,41.77777777777778,47,9,1,5,YES
284,1393,116.08333333333333,207,178,14.833333333333334,21,1215,101.25,186,12,2,7,YES
87,538,67.25,87,8,1.0,4,530,66.25,87,8,1,5,YES
43,258,43.0,43,0,0.0,0,258,43.0,43,6,0,4,NO
47,0,0.0,0,0,0.0,0,0,0.0,0,0,0,0,NO
55,330,55.0,55,0,0.0,0,330,55.0,55,6,0,4,NO
41,250,31.25,41,2,0.25,1,248,31.0,41,8,1,5,YES
42,390,39.0,54,12,1.2,12,402,40.2,54,10,1,6,YES
50,300,50.0,50,0,0.0,0,300,50.0,50,6,0,4,NO
41,246,41.0,41,0,0.0,0,246,41.0,41,6,0,4,NO
59,54,9.0,9,30,5.0,5,24,4.0,4,6,0,4,NO
45,270,45.0,45,0,0.0,0,270,45.0,45,6,0,4,NO
116,54,9.0,9,6,1.0,1,48,8.0,8,6,0,4,NO
172,178,17.8,29,110,11.0,17,76,7.6,12,10,1,5,YES
94,846,94.0,94,0,0.0,0,846,94.0,94,9,1,6,YES
159,288,48.0,48,78,13.0,13,210,35.0,35,6,0,4,NO
56,336,56.0,56,0,0.0,0,336,56.0,56,6,0,4,NO
77,472,59.0,77,10,1.25,5,462,57.75,77,8,0,5,NO
114,360,60.0,60,150,25.0,25,210,35.0,35,6,0,4,NO
77,462,77.0,77,0,0.0,0,462,77.0,77,6,0,4,NO
80,60,10.0,10,54,9.0,9,6,1.0,1,6,0,4,NO
46,276,46.0,46,0,0.0,0,276,46.0,46,6,0,4,NO
157,942,157.0,157,0,0.0,0,942,157.0,157,6,0,4,NO
57,12,2.0,2,12,2.0,2,0,0.0,0,6,0,4,NO
57,18,3.0,3,18,3.0,3,0,0.0,0,6,0,4,NO
131,876,67.38461538461539,131,41,3.1538461538461537,8,839,64.53846153846153,131,13,1,6,YES
70,420,70.0,70,0,0.0,0,420,70.0,70,6,0,4,NO
110,0,0.0,0,0,0.0,0,0,0.0,0,0,0,0,NO
70,6,1.0,1,0,0.0,0,6,1.0,1,6,0,4,NO
114,0,0.0,0,0,0.0,0,0,0.0,0,0,0,0,NO
261,2096,262.0,262,0,0.0,0,2096,262.0,262,8,1,5,YES
281,1742,158.36363636363637,281,14,1.2727272727272727,4,1728,157.0909090909091,281,11,1,6,YES
108,648,108.0,108,0,0.0,0,648,108.0,108,6,0,4,NO
44,264,44.0,44,0,0.0,0,264,44.0,44,6,0,4,NO
104,624,104.0,104,0,0.0,0,624,104.0,104,6,0,4,NO
206,1236,206.0,206,0,0.0,0,1236,206.0,206,6,0,4,NO
86,516,86.0,86,0,0.0,0,516,86.0,86,6,0,4,NO
89,0,0.0,0,0,0.0,0,0,0.0,0,0,0,0,NO
64,0,0.0,0,0,0.0,0,0,0.0,0,0,0,0,NO
61,356,39.55555555555556,61,4,0.4444444444444444,3,358,39.77777777777778,61,9,1,4,NO
64,412,34.333333333333336,64,41,3.4166666666666665,14,429,35.75,64,12,1,4,NO
68,394,43.77777777777778,68,2,0.2222222222222222,1,394,43.77777777777778,68,9,1,4,NO
23,0,0.0,0,0,0.0,0,0,0.0,0,0,0,0,NO
40,0,0.0,0,0,0.0,0,0,0.0,0,0,0,0,NO
25,0,0.0,0,0,0.0,0,0,0.0,0,0,0,0,NO
26,0,0.0,0,0,0.0,0,0,0.0,0,0,0,0,NO
59,0,0.0,0,0,0.0,0,0,0.0,0,0,0,0,NO
60,0,0.0,0,0,0.0,0,0,0.0,0,0,0,0,NO
51,0,0.0,0,0,0.0,0,0,0.0,0,0,0,0,NO
58,0,0.0,0,0,0.0,0,0,0.0,0,0,0,0,NO
61,0,0.0,0,0,0.0,0,0,0.0,0,0,0,0,NO
35,195,24.375,35,1,0.125,1,196,24.5,35,8,1,4,NO
224,0,0.0,0,0,0.0,0,0,0.0,0,0,0,0,NO
32,0,0.0,0,0,0.0,0,0,0.0,0,0,0,0,NO
32,0,0.0,0,0,0.0,0,0,0.0,0,0,0,0,NO
32,0,0.0,0,0,0.0,0,0,0.0,0,0,0,0,NO
32,0,0.0,0,0,0.0,0,0,0.0,0,0,0,0,NO
23,0,0.0,0,0,0.0,0,0,0.0,0,0,0,0,NO
24,0,0.0,0,0,0.0,0,0,0.0,0,0,0,0,NO
105,9,1.0,1,9,1.0,1,0,0.0,0,9,3,8,YES
29,0,0.0,0,0,0.0,0,0,0.0,0,0,0,0,NO
34,0,0.0,0,0,0.0,0,0,0.0,0,0,0,0,NO
28,0,0.0,0,0,0.0,0,0,0.0,0,0,0,0,NO
31,0,0.0,0,0,0.0,0,0,0.0,0,0,0,0,NO
38,0,0.0,0,0,0.0,0,0,0.0,0,0,0,0,NO
32,0,0.0,0,0,0.0,0,0,0.0,0,0,0,0,NO
28,0,0.0,0,0,0.0,0,0,0.0,0,0,0,0,NO
41,0,0.0,0,0,0.0,0,0,0.0,0,0,0,0,NO
260,1216,38.0,106,201,6.28125,49,1015,31.71875,64,32,6,15,YES
41,0,0.0,0,0,0.0,0,0,0.0,0,0,0,0,NO
134,0,0.0,0,0,0.0,0,0,0.0,0,0,0,0,NO
29,0,0.0,0,0,0.0,0,0,0.0,0,0,0,0,NO
22,0,0.0,0,0,0.0,0,0,0.0,0,0,0,0,NO
25,0,0.0,0,0,0.0,0,0,0.0,0,0,0,0,NO
24,0,0.0,0,0,0.0,0,0,0.0,0,0,0,0,NO
28,0,0.0,0,0,0.0,0,0,0.0,0,0,0,0,NO
30,0,0.0,0,0,0.0,0,0,0.0,0,0,0,0,NO
198,0,0.0,0,0,0.0,0,0,0.0,0,0,0,0,NO
84,0,0.0,0,0,0.0,0,0,0.0,0,0,0,0,NO
22,0,0.0,0,0,0.0,0,0,0.0,0,0,0,0,NO
31,0,0.0,0,0,0.0,0,0,0.0,0,0,0,0,NO
32,0,0.0,0,0,0.0,0,0,0.0,0,0,0,0,NO
225,0,0.0,0,0,0.0,0,0,0.0,0,0,0,0,NO
383,1970,45.81395348837209,144,825,19.186046511627907,115,1163,27.046511627906977,75,43,7,16,YES
314,305,21.785714285714285,49,2,0.14285714285714285,1,303,21.642857142857142,48,14,3,9,YES
106,0,0.0,0,0,0.0,0,0,0.0,0,0,0,0,NO
25,0,0.0,0,0,0.0,0,0,0.0,0,0,0,0,NO
52,0,0.0,0,0,0.0,0,0,0.0,0,0,0,0,NO
52,0,0.0,0,0,0.0,0,0,0.0,0,0,0,0,NO
72,0,0.0,0,0,0.0,0,0,0.0,0,0,0,0,NO
39,0,0.0,0,0,0.0,0,0,0.0,0,0,0,0,NO
48,0,0.0,0,0,0.0,0,0,0.0,0,0,0,0,NO
42,0,0.0,0,0,0.0,0,0,0.0,0,0,0,0,NO
67,21,21.0,21,1,1.0,1,20,20.0,20,1,0,1,NO
55,0,0.0,0,0,0.0,0,0,0.0,0,0,0,0,NO
57,0,0.0,0,0,0.0,0,0,0.0,0,0,0,0,NO
100,0,0.0,0,0,0.0,0,0,0.0,0,0,0,0,NO
42,0,0.0,0,0,0.0,0,0,0.0,0,0,0,0,NO
179,0,0.0,0,0,0.0,0,0,0.0,0,0,0,0,NO
95,570,95.0,95,0,0.0,0,570,95.0,95,6,0,3,NO
42,0,0.0,0,0,0.0,0,0,0.0,0,0,0,0,NO
61,0,0.0,0,0,0.0,0,0,0.0,0,0,0,0,NO
24,0,0.0,0,0,0.0,0,0,0.0,0,0,0,0,NO
61,0,0.0,0,0,0.0,0,0,0.0,0,0,0,0,NO
181,0,0.0,0,0,0.0,0,0,0.0,0,0,0,0,NO
38,0,0.0,0,0,0.0,0,0,0.0,0,0,0,0,NO
57,0,0.0,0,0,0.0,0,0,0.0,0,0,0,0,NO
51,0,0.0,0,0,0.0,0,0,0.0,0,0,0,0,NO
60,0,0.0,0,0,0.0,0,0,0.0,0,0,0,0,NO
50,0,0.0,0,0,0.0,0,0,0.0,0,0,0,0,NO
51,0,0.0,0,0,0.0,0,0,0.0,0,0,0,0,NO
186,0,0.0,0,0,0.0,0,0,0.0,0,0,0,0,NO
52,0,0.0,0,0,0.0,0,0,0.0,0,0,0,0,NO
32,305,30.5,32,0,0.0,0,305,30.5,32,10,1,7,YES
35,332,33.2,35,0,0.0,0,332,33.2,35,10,1,7,YES
37,222,37.0,37,0,0.0,0,222,37.0,37,6,0,4,NO
105,0,0.0,0,0,0.0,0,0,0.0,0,0,0,0,NO
63,0,0.0,0,0,0.0,0,0,0.0,0,0,0,0,NO
62,0,0.0,0,0,0.0,0,0,0.0,0,0,0,0,NO
139,278,139.0,139,0,0.0,0,278,139.0,139,2,1,1,YES
76,152,76.0,76,0,0.0,0,152,76.0,76,2,1,1,YES
60,0,0.0,0,0,0.0,0,0,0.0,0,0,0,0,NO
41,0,0.0,0,0,0.0,0,0,0.0,0,0,0,0,NO
31,0,0.0,0,0,0.0,0,0,0.0,0,0,0,0,NO
45,0,0.0,0,0,0.0,0,0,0.0,0,0,0,0,NO
85,0,0.0,0,0,0.0,0,0,0.0,0,0,0,0,NO
37,0,0.0,0,0,0.0,0,0,0.0,0,0,0,0,NO
61,0,0.0,0,0,0.0,0,0,0.0,0,0,0,0,NO
86,0,0.0,0,0,0.0,0,0,0.0,0,0,0,0,NO
34,0,0.0,0,0,0.0,0,0,0.0,0,0,0,0,NO
83,0,0.0,0,0,0.0,0,0,0.0,0,0,0,0,NO
54,0,0.0,0,0,0.0,0,0,0.0,0,0,0,0,NO
67,0,0.0,0,0,0.0,0,0,0.0,0,0,0,0,NO
62,0,0.0,0,0,0.0,0,0,0.0,0,0,0,0,NO
22,0,0.0,0,0,0.0,0,0,0.0,0,0,0,0,NO
29,0,0.0,0,0,0.0,0,0,0.0,0,0,0,0,NO
36,0,0.0,0,0,0.0,0,0,0.0,0,0,0,0,NO
33,0,0.0,0,0,0.0,0,0,0.0,0,0,0,0,NO
26,0,0.0,0,0,0.0,0,0,0.0,0,0,0,0,NO
44,0,0.0,0,0,0.0,0,0,0.0,0,0,0,0,NO
29,0,0.0,0,0,0.0,0,0,0.0,0,0,0,0,NO
29,0,0.0,0,0,0.0,0,0,0.0,0,0,0,0,NO
25,0,0.0,0,0,0.0,0,0,0.0,0,0,0,0,NO
53,0,0.0,0,0,0.0,0,0,0.0,0,0,0,0,NO
32,0,0.0,0,0,0.0,0,0,0.0,0,0,0,0,NO
53,0,0.0,0,0,0.0,0,0,0.0,0,0,0,0,NO
36,0,0.0,0,0,0.0,0,0,0.0,0,0,0,0,NO
22,0,0.0,0,0,0.0,0,0,0.0,0,0,0,0,NO
359,0,0.0,0,0,0.0,0,0,0.0,0,0,0,0,NO
33,0,0.0,0,0,0.0,0,0,0.0,0,0,0,0,NO
25,0,0.0,0,0,0.0,0,0,0.0,0,0,0,0,NO
28,0,0.0,0,0,0.0,0,0,0.0,0,0,0,0,NO
25,0,0.0,0,0,0.0,0,0,0.0,0,0,0,0,NO
25,0,0.0,0,0,0.0,0,0,0.0,0,0,0,0,NO
26,0,0.0,0,0,0.0,0,0,0.0,0,0,0,0,NO
50,0,0.0,0,0,0.0,0,0,0.0,0,0,0,0,NO
24,0,0.0,0,0,0.0,0,0,0.0,0,0,0,0,NO
25,0,0.0,0,0,0.0,0,0,0.0,0,0,0,0,NO
26,0,0.0,0,0,0.0,0,0,0.0,0,0,0,0,NO
31,0,0.0,0,0,0.0,0,0,0.0,0,0,0,0,NO
94,0,0.0,0,0,0.0,0,0,0.0,0,0,0,0,NO
61,0,0.0,0,0,0.0,0,0,0.0,0,0,0,0,NO
96,0,0.0,0,0,0.0,0,0,0.0,0,0,0,0,NO
217,0,0.0,0,0,0.0,0,0,0.0,0,0,0,0,NO
510,0,0.0,0,0,0.0,0,0,0.0,0,0,0,0,NO
56,0,0.0,0,0,0.0,0,0,0.0,0,0,0,0,NO
69,0,0.0,0,0,0.0,0,0,0.0,0,0,0,0,NO
159,0,0.0,0,0,0.0,0,0,0.0,0,0,0,0,NO
142,0,0.0,0,0,0.0,0,0,0.0,0,0,0,0,NO
149,0,0.0,0,0,0.0,0,0,0.0,0,0,0,0,NO
47,282,47.0,47,0,0.0,0,282,47.0,47,6,0,4,NO
173,272,34.0,45,68,8.5,11,204,25.5,34,8,1,5,YES
100,0,0.0,0,0,0.0,0,0,0.0,0,0,0,0,NO
136,816,136.0,136,0,0.0,0,816,136.0,136,6,0,6,NO
98,0,0.0,0,0,0.0,0,0,0.0,0,0,0,0,NO
60,13,1.8571428571428572,7,674,96.28571428571429,112,671,95.85714285714286,111,7,0,7,NO
351,7,7.0,7,1,1.0,1,6,6.0,6,1,0,1,NO
37,0,0.0,0,0,0.0,0,0,0.0,0,0,0,0,NO
20,157,19.625,20,0,0.0,0,157,19.625,20,8,1,6,YES
54,0,0.0,0,0,0.0,0,0,0.0,0,0,0,0,NO
44,0,0.0,0,0,0.0,0,0,0.0,0,0,0,0,NO
35,0,0.0,0,0,0.0,0,0,0.0,0,0,0,0,NO
24,0,0.0,0,0,0.0,0,0,0.0,0,0,0,0,NO
65,132,22.0,22,246,41.0,41,114,19.0,19,6,0,4,NO
217,508,33.86666666666667,78,406,27.066666666666666,45,122,8.133333333333333,33,15,2,7,YES
177,0,0.0,0,0,0.0,0,0,0.0,0,0,0,0,NO
59,0,0.0,0,0,0.0,0,0,0.0,0,0,0,0,NO
68,0,0.0,0,0,0.0,0,0,0.0,0,0,0,0,NO
156,0,0.0,0,0,0.0,0,0,0.0,0,0,0,0,NO
114,267,24.272727272727273,34,92,8.363636363636363,17,175,15.909090909090908,24,11,2,7,YES
249,2801,215.46153846153845,249,62,4.769230769230769,40,2739,210.69230769230768,249,13,1,7,YES
43,0,0.0,0,0,0.0,0,0,0.0,0,0,0,0,NO
43,0,0.0,0,0,0.0,0,0,0.0,0,0,0,0,NO
38,0,0.0,0,0,0.0,0,0,0.0,0,0,0,0,NO
59,68,9.714285714285714,20,23,3.2857142857142856,5,45,6.428571428571429,15,7,0,5,NO
64,0,0.0,0,0,0.0,0,0,0.0,0,0,0,0,NO
124,0,0.0,0,0,0.0,0,0,0.0,0,0,0,0,NO
47,0,0.0,0,0,0.0,0,0,0.0,0,0,0,0,NO
182,540,36.0,116,201,13.4,83,339,22.6,38,15,3,10,YES
498,4482,498.0,498,0,0.0,0,4482,498.0,498,9,1,6,YES
74,445,63.57142857142857,74,1,0.14285714285714285,1,444,63.42857142857143,74,7,1,6,YES
34,204,34.0,34,0,0.0,0,204,34.0,34,6,0,4,NO
58,0,0.0,0,0,0.0,0,0,0.0,0,0,0,0,NO
109,24,12.0,12,12,6.0,6,12,6.0,6,2,1,1,YES
161,0,0.0,0,0,0.0,0,0,0.0,0,0,0,0,NO
113,226,113.0,113,0,0.0,0,226,113.0,113,2,1,1,YES
536,1204,40.13333333333333,111,640,21.333333333333332,50,862,28.733333333333334,90,30,4,13,YES
186,0,0.0,0,0,0.0,0,0,0.0,0,0,0,0,NO
51,0,0.0,0,0,0.0,0,0,0.0,0,0,0,0,NO
375,0,0.0,0,0,0.0,0,0,0.0,0,0,0,0,NO
53,42,7.0,7,12,2.0,2,30,5.0,5,6,0,4,NO
84,504,84.0,84,0,0.0,0,504,84.0,84,6,0,4,NO
30,0,0.0,0,0,0.0,0,0,0.0,0,0,0,0,NO
377,8,4.0,4,2,1.0,1,6,3.0,3,2,1,1,YES
40,0,0.0,0,0,0.0,0,0,0.0,0,0,0,0,NO
813,0,0.0,0,0,0.0,0,0,0.0,0,0,0,0,NO
121,66,11.0,11,12,2.0,2,54,9.0,9,6,0,4,NO
183,0,0.0,0,0,0.0,0,0,0.0,0,0,0,0,NO
32,0,0.0,0,0,0.0,0,0,0.0,0,0,0,0,NO
32,0,0.0,0,0,0.0,0,0,0.0,0,0,0,0,NO
26,0,0.0,0,0,0.0,0,0,0.0,0,0,0,0,NO
174,0,0.0,0,0,0.0,0,0,0.0,0,0,0,0,NO
31,0,0.0,0,0,0.0,0,0,0.0,0,0,0,0,NO
24,0,0.0,0,0,0.0,0,0,0.0,0,0,0,0,NO
34,0,0.0,0,0,0.0,0,0,0.0,0,0,0,0,NO
123,0,0.0,0,0,0.0,0,0,0.0,0,0,0,0,NO
87,0,0.0,0,0,0.0,0,0,0.0,0,0,0,0,NO
26,0,0.0,0,0,0.0,0,0,0.0,0,0,0,0,NO
25,0,0.0,0,0,0.0,0,0,0.0,0,0,0,0,NO
23,0,0.0,0,0,0.0,0,0,0.0,0,0,0,0,NO
23,0,0.0,0,0,0.0,0,0,0.0,0,0,0,0,NO
23,0,0.0,0,0,0.0,0,0,0.0,0,0,0,0,NO
33,0,0.0,0,0,0.0,0,0,0.0,0,0,0,0,NO
32,0,0.0,0,0,0.0,0,0,0.0,0,0,0,0,NO
29,0,0.0,0,0,0.0,0,0,0.0,0,0,0,0,NO
22,0,0.0,0,0,0.0,0,0,0.0,0,0,0,0,NO
25,0,0.0,0,0,0.0,0,0,0.0,0,0,0,0,NO
24,0,0.0,0,0,0.0,0,0,0.0,0,0,0,0,NO
31,0,0.0,0,0,0.0,0,0,0.0,0,0,0,0,NO
31,0,0.0,0,0,0.0,0,0,0.0,0,0,0,0,NO
26,0,0.0,0,0,0.0,0,0,0.0,0,0,0,0,NO
26,0,0.0,0,0,0.0,0,0,0.0,0,0,0,0,NO
26,0,0.0,0,0,0.0,0,0,0.0,0,0,0,0,NO
36,0,0.0,0,0,0.0,0,0,0.0,0,0,0,0,NO
65,0,0.0,0,0,0.0,0,0,0.0,0,0,0,0,NO
41,0,0.0,0,0,0.0,0,0,0.0,0,0,0,0,NO
39,0,0.0,0,0,0.0,0,0,0.0,0,0,0,0,NO
38,0,0.0,0,0,0.0,0,0,0.0,0,0,0,0,NO
31,0,0.0,0,0,0.0,0,0,0.0,0,0,0,0,NO
125,0,0.0,0,0,0.0,0,0,0.0,0,0,0,0,NO
38,0,0.0,0,0,0.0,0,0,0.0,0,0,0,0,NO
48,0,0.0,0,0,0.0,0,0,0.0,0,0,0,0,NO
44,0,0.0,0,0,0.0,0,0,0.0,0,0,0,0,NO
42,0,0.0,0,0,0.0,0,0,0.0,0,0,0,0,NO
46,0,0.0,0,0,0.0,0,0,0.0,0,0,0,0,NO
42,0,0.0,0,0,0.0,0,0,0.0,0,0,0,0,NO
113,0,0.0,0,0,0.0,0,0,0.0,0,0,0,0,NO
53,0,0.0,0,0,0.0,0,0,0.0,0,0,0,0,NO
56,0,0.0,0,0,0.0,0,0,0.0,0,0,0,0,NO
61,0,0.0,0,0,0.0,0,0,0.0,0,0,0,0,NO
49,0,0.0,0,0,0.0,0,0,0.0,0,0,0,0,NO
53,0,0.0,0,0,0.0,0,0,0.0,0,0,0,0,NO
29,0,0.0,0,0,0.0,0,0,0.0,0,0,0,0,NO
48,0,0.0,0,0,0.0,0,0,0.0,0,0,0,0,NO
96,0,0.0,0,0,0.0,0,0,0.0,0,0,0,0,NO
95,0,0.0,0,0,0.0,0,0,0.0,0,0,0,0,NO
51,0,0.0,0,0,0.0,0,0,0.0,0,0,0,0,NO
29,0,0.0,0,0,0.0,0,0,0.0,0,0,0,0,NO
159,0,0.0,0,0,0.0,0,0,0.0,0,0,0,0,NO
53,0,0.0,0,0,0.0,0,0,0.0,0,0,0,0,NO
56,0,0.0,0,0,0.0,0,0,0.0,0,0,0,0,NO
27,0,0.0,0,0,0.0,0,0,0.0,0,0,0,0,NO
95,0,0.0,0,0,0.0,0,0,0.0,0,0,0,0,NO
40,0,0.0,0,0,0.0,0,0,0.0,0,0,0,0,NO
45,0,0.0,0,0,0.0,0,0,0.0,0,0,0,0,NO
61,0,0.0,0,0,0.0,0,0,0.0,0,0,0,0,NO
53,0,0.0,0,0,0.0,0,0,0.0,0,0,0,0,NO
38,0,0.0,0,0,0.0,0,0,0.0,0,0,0,0,NO
64,0,0.0,0,0,0.0,0,0,0.0,0,0,0,0,NO
31,0,0.0,0,0,0.0,0,0,0.0,0,0,0,0,NO
52,0,0.0,0,0,0.0,0,0,0.0,0,0,0,0,NO
29,0,0.0,0,0,0.0,0,0,0.0,0,0,0,0,NO
33,0,0.0,0,0,0.0,0,0,0.0,0,0,0,0,NO
39,0,0.0,0,0,0.0,0,0,0.0,0,0,0,0,NO
218,0,0.0,0,0,0.0,0,0,0.0,0,0,0,0,NO
40,0,0.0,0,0,0.0,0,0,0.0,0,0,0,0,NO
27,0,0.0,0,0,0.0,0,0,0.0,0,0,0,0,NO
84,0,0.0,0,0,0.0,0,0,0.0,0,0,0,0,NO
62,0,0.0,0,0,0.0,0,0,0.0,0,0,0,0,NO
80,0,0.0,0,0,0.0,0,0,0.0,0,0,0,0,NO
59,0,0.0,0,0,0.0,0,0,0.0,0,0,0,0,NO
93,0,0.0,0,0,0.0,0,0,0.0,0,0,0,0,NO
107,0,0.0,0,0,0.0,0,0,0.0,0,0,0,0,NO
73,0,0.0,0,0,0.0,0,0,0.0,0,0,0,0,NO
106,0,0.0,0,0,0.0,0,0,0.0,0,0,0,0,NO
76,0,0.0,0,0,0.0,0,0,0.0,0,0,0,0,NO
92,0,0.0,0,0,0.0,0,0,0.0,0,0,0,0,NO
24,0,0.0,0,0,0.0,0,0,0.0,0,0,0,0,NO
33,0,0.0,0,0,0.0,0,0,0.0,0,0,0,0,NO
31,0,0.0,0,0,0.0,0,0,0.0,0,0,0,0,NO
62,0,0.0,0,0,0.0,0,0,0.0,0,0,0,0,NO
77,0,0.0,0,0,0.0,0,0,0.0,0,0,0,0,NO
25,0,0.0,0,0,0.0,0,0,0.0,0,0,0,0,NO
94,0,0.0,0,0,0.0,0,0,0.0,0,0,0,0,NO
201,0,0.0,0,0,0.0,0,0,0.0,0,0,0,0,NO
171,0,0.0,0,0,0.0,0,0,0.0,0,0,0,0,NO
198,0,0.0,0,0,0.0,0,0,0.0,0,0,0,0,NO
49,0,0.0,0,0,0.0,0,0,0.0,0,0,0,0,NO
38,0,0.0,0,0,0.0,0,0,0.0,0,0,0,0,NO
178,2,1.0,1,0,0.0,0,2,1.0,1,2,1,1,YES
94,0,0.0,0,0,0.0,0,0,0.0,0,0,0,0,NO
138,0,0.0,0,0,0.0,0,0,0.0,0,0,0,0,NO
25,0,0.0,0,0,0.0,0,0,0.0,0,0,0,0,NO
25,0,0.0,0,0,0.0,0,0,0.0,0,0,0,0,NO
36,0,0.0,0,0,0.0,0,0,0.0,0,0,0,0,NO
26,0,0.0,0,0,0.0,0,0,0.0,0,0,0,0,NO
44,0,0.0,0,0,0.0,0,0,0.0,0,0,0,0,NO
52,0,0.0,0,0,0.0,0,0,0.0,0,0,0,0,NO
50,0,0.0,0,0,0.0,0,0,0.0,0,0,0,0,NO
75,0,0.0,0,0,0.0,0,0,0.0,0,0,0,0,NO
28,0,0.0,0,0,0.0,0,0,0.0,0,0,0,0,NO
31,0,0.0,0,0,0.0,0,0,0.0,0,0,0,0,NO
41,0,0.0,0,0,0.0,0,0,0.0,0,0,0,0,NO
26,0,0.0,0,0,0.0,0,0,0.0,0,0,0,0,NO
39,0,0.0,0,0,0.0,0,0,0.0,0,0,0,0,NO
26,0,0.0,0,0,0.0,0,0,0.0,0,0,0,0,NO
30,0,0.0,0,0,0.0,0,0,0.0,0,0,0,0,NO
25,0,0.0,0,0,0.0,0,0,0.0,0,0,0,0,NO
33,0,0.0,0,0,0.0,0,0,0.0,0,0,0,0,NO
44,0,0.0,0,0,0.0,0,0,0.0,0,0,0,0,NO
23,0,0.0,0,0,0.0,0,0,0.0,0,0,0,0,NO
80,0,0.0,0,0,0.0,0,0,0.0,0,0,0,0,NO
79,0,0.0,0,0,0.0,0,0,0.0,0,0,0,0,NO
26,0,0.0,0,0,0.0,0,0,0.0,0,0,0,0,NO
83,0,0.0,0,0,0.0,0,0,0.0,0,0,0,0,NO
92,0,0.0,0,0,0.0,0,0,0.0,0,0,0,0,NO
26,0,0.0,0,0,0.0,0,0,0.0,0,0,0,0,NO
85,0,0.0,0,0,0.0,0,0,0.0,0,0,0,0,NO
67,0,0.0,0,0,0.0,0,0,0.0,0,0,0,0,NO
124,10,5.0,5,2,1.0,1,8,4.0,4,2,1,1,YES
26,0,0.0,0,0,0.0,0,0,0.0,0,0,0,0,NO
25,67,22.333333333333332,25,0,0.0,0,67,22.333333333333332,25,3,1,2,YES
76,0,0.0,0,0,0.0,0,0,0.0,0,0,0,0,NO
109,0,0.0,0,0,0.0,0,0,0.0,0,0,0,0,NO
24,0,0.0,0,0,0.0,0,0,0.0,0,0,0,0,NO
27,0,0.0,0,0,0.0,0,0,0.0,0,0,0,0,NO
47,0,0.0,0,0,0.0,0,0,0.0,0,0,0,0,NO
185,0,0.0,0,0,0.0,0,0,0.0,0,0,0,0,NO
96,0,0.0,0,0,0.0,0,0,0.0,0,0,0,0,NO
97,0,0.0,0,0,0.0,0,0,0.0,0,0,0,0,NO
23,0,0.0,0,0,0.0,0,0,0.0,0,0,0,0,NO
154,0,0.0,0,0,0.0,0,0,0.0,0,0,0,0,NO
47,0,0.0,0,0,0.0,0,0,0.0,0,0,0,0,NO
176,52,26.0,26,2,1.0,1,50,25.0,25,2,1,1,YES
36,0,0.0,0,0,0.0,0,0,0.0,0,0,0,0,NO
32,0,0.0,0,0,0.0,0,0,0.0,0,0,0,0,NO
30,0,0.0,0,0,0.0,0,0,0.0,0,0,0,0,NO
37,0,0.0,0,0,0.0,0,0,0.0,0,0,0,0,NO
33,0,0.0,0,0,0.0,0,0,0.0,0,0,0,0,NO
32,0,0.0,0,0,0.0,0,0,0.0,0,0,0,0,NO
289,12,4.0,4,0,0.0,0,12,4.0,4,3,1,2,YES
66,0,0.0,0,0,0.0,0,0,0.0,0,0,0,0,NO
425,1,1.0,1,1,1.0,1,0,0.0,0,1,0,1,NO
722,0,0.0,0,0,0.0,0,0,0.0,0,0,0,0,NO
147,0,0.0,0,0,0.0,0,0,0.0,0,0,0,0,NO
47,282,47.0,47,0,0.0,0,282,47.0,47,6,0,4,NO
171,284,35.5,47,68,8.5,11,216,27.0,36,8,1,5,YES
92,0,0.0,0,0,0.0,0,0,0.0,0,0,0,0,NO
44,0,0.0,0,0,0.0,0,0,0.0,0,0,0,0,NO
34,24,4.0,4,252,42.0,42,228,38.0,38,6,0,6,NO
359,198,33.0,33,12,2.0,2,186,31.0,31,6,0,6,NO
60,0,0.0,0,6,1.0,1,6,1.0,1,6,0,6,NO
28,0,0.0,0,0,0.0,0,0,0.0,0,0,0,0,NO
50,0,0.0,0,0,0.0,0,0,0.0,0,0,0,0,NO
35,0,0.0,0,0,0.0,0,0,0.0,0,0,0,0,NO
142,24,12.0,12,4,2.0,2,20,10.0,10,2,1,1,YES
82,473,67.57142857142857,82,4,0.5714285714285714,4,469,67.0,82,7,1,4,NO
153,596,42.57142857142857,153,136,9.714285714285714,13,468,33.42857142857143,153,14,2,7,YES
100,606,86.57142857142857,101,0,0.0,0,606,86.57142857142857,101,7,1,6,YES
